*SPEF "IEEE 1481-1998"
*DESIGN "counter"
*DATE "Fri Aug  7 05:57:59 2026"
*VENDOR "Cadence Design Systems, Inc."
*PROGRAM "Innovus"
*VERSION "21.18-s099_1"
*DESIGN_FLOW "COUPLING C" "PIN_CAP NONE" "NAME_SCOPE LOCAL"
*DIVIDER /
*DELIMITER :
*BUS_DELIMITER []
*T_UNIT 1 NS
*C_UNIT 1 PF
*R_UNIT 1 OHM
*L_UNIT 1 HENRY

// MMMC spef file for corner 'rc_worst'

*NAME_MAP

*1 FE_OFN3_count_0
*2 FE_OFN2_count_1
*3 FE_OFN1_count_2
*4 FE_OFN0_count_3
*5 clk
*6 reset
*7 count[3]
*8 count[2]
*9 count[1]
*10 count[0]
*11 n_0
*12 n_1
*13 n_2
*14 n_3
*15 n_4
*16 n_5
*17 n_6
*18 FE_OFC3_count_0
*19 FE_OFC2_count_1
*20 FE_OFC1_count_2
*21 FE_OFC0_count_3
*22 count_reg\[3\]
*23 g81__2398
*24 count_reg\[2\]
*25 g83__5107
*26 count_reg\[1\]
*27 g85__6260
*28 g87
*29 count_reg\[0\]


*PORTS

*5 I *C 2 35
*6 I *C 4 35
*7 O *C 0 3
*8 O *C 4 0
*9 O *C 2 0
*10 O *C 35 3


*D_NET *1 0.000971911

*CONN
*I *29:Q O *C 20.3 20.6 *L 0 *D DFCND1
*I *18:I I *C 19.7 13.8 *L 0.00184 *D CKBD4

*CAP
1 *29:Q 6.69499e-05
2 *18:I 2.95808e-05
3 *1:2 0.000309101
4 *1:3 0.00031047
5 *1:4 5.46467e-05
6 *1:5 5.46467e-05
7 *1:6 5.67928e-05
8 *1:7 8.97229e-05

*RES
1 *1:7 *29:Q 1.57863
2 *1:6 *1:7 0.849227
3 *1:5 *1:6 0.31846
4 *1:4 *1:5 0.849227
5 *1:3 *1:4 0.31846
6 *1:2 *1:3 5.53009987
7 *18:I *1:2 3.15726
*END

*D_NET *2 0.0006245

*CONN
*I *26:Q O *C 17.1 16.2 *L 0 *D DFCNQD1
*I *27:B I *C 16.9 13.8 *L 0.00276 *D HA1D0
*I *19:I I *C 15.3 13.8 *L 0.00184 *D CKBD4

*CAP
1 *26:Q 6.69504e-05
2 *27:B 2.95797e-05
3 *19:I 4.70112e-05
4 *2:3 6.77e-05
5 *2:4 5.22205e-05
6 *2:5 6.25791e-05
7 *2:6 2.32089e-05
8 *2:7 7.71906e-05
9 *2:8 2.41495e-05
10 *2:9 7.049e-05
11 *2:10 0.00010342

*RES
1 *2:10 *26:Q 1.57861
2 *2:9 *2:10 1.06463
3 *2:6 *27:B 3.1572299
4 *2:8 *2:9 0.31844
5 *2:6 *2:7 0.212309
6 *2:7 *2:8 0.212309
7 *2:3 *2:7 1.27385676
8 *2:4 *2:3 0.212309
9 *2:5 *2:4 1.57861
10 *19:I *2:5 1.00615
*END

*D_NET *3 0.000621449

*CONN
*I *24:Q O *C 16.3 19.8 *L 0 *D DFCNQD1
*I *25:A I *C 19.1 17.4 *L 0.00166 *D HA1D0
*I *20:I I *C 16.1 19.4 *L 0.00184 *D CKBD4

*CAP
1 *24:Q 7.863e-05
2 *25:A 2.95805e-05
3 *20:I 1.16798e-05
4 *3:3 0.00010683
5 *3:4 7.82499e-05
6 *3:6 5.43003e-05
7 *3:7 0.00013109
8 *3:8 0.00013109

*RES
1 *3:4 *25:A 3.1572299
2 *3:4 *3:3 1.58526
3 *3:8 *3:3 1.57861
4 *20:I *24:Q 0.251524
5 *3:7 *3:8 3.00215292
6 *3:6 *3:7 1.57861
7 *3:6 *24:Q 1.57861
8 *3:5 *3:6 0.0796341
*END

*D_NET *4 0.000536214

*CONN
*I *22:Q O *C 13.7 17 *L 0 *D DFCNQD1
*I *21:I I *C 14.3 21 *L 0.00184 *D CKBD4

*CAP
1 *22:Q 6.69503e-05
2 *21:I 2.958e-05
3 *4:2 5.8831e-05
4 *4:3 4.45991e-05
5 *4:4 0.00015401
6 *4:5 0.000121081
7 *4:6 2.27813e-05
8 *4:7 3.83809e-05

*RES
1 *4:6 *21:I 3.1572299
2 *4:6 *4:7 0.212309
3 *4:2 *4:7 0.636928
4 *4:3 *4:2 0.888694
5 *4:5 *4:3 0.31844
6 *4:4 *4:5 3.04555917
7 *22:Q *4:4 1.57861
*END

*D_NET *5 0.00543815

*CONN
*P *5 I *C 2 35 *L 0
*I *29:CP I *C 16.1 21 *L 0.000695 *D DFCND1
*I *26:CP I *C 21.3 15.8 *L 0.000653 *D DFCNQD1
*I *24:CP I *C 20.5 19.4 *L 0.000653 *D DFCNQD1
*I *22:CP I *C 17.9 17.4 *L 0.000653 *D DFCNQD1

*CAP
1 *5 1.66448e-05
2 *29:CP 2.9585e-05
3 *26:CP 2.9585e-05
4 *24:CP 6.07232e-05
5 *22:CP 2.9585e-05
6 *5:5 0.00028418
7 *5:6 0.000178538
8 *5:7 0.000123293
9 *5:8 9.4716e-05
10 *5:9 0.000188771
11 *5:17 0.00068778
12 *5:18 0.000255277
13 *5:19 3.22087e-05
14 *5:20 5.13618e-05
15 *5:21 2.27843e-05
16 *5:22 5.43004e-05
17 *5:23 0.000659203
18 *5:24 0.000146655
19 *5:25 5.43004e-05
20 *5:26 0.000491128
21 *5:27 0.000370489
22 *5:28 8.84296e-05
23 *5:29 0.000114698
24 *5:30 5.43004e-05
25 *5:31 5.43004e-05
26 *5:32 0.000491128
27 *5:33 8.64986e-05
28 *5:34 3.76975e-05
29 *5:35 5.43004e-05
30 *5:36 5.79211e-05
31 *5:37 5.43004e-05
32 *5:38 0.000200158
33 *5:39 0.000228735
34 *5:40 5.45627e-05

*RES
1 *5:38 *26:CP 3.15723
2 *5:38 *5:39 3.82165
3 *5:8 *22:CP 3.15723
4 *5:37 *24:CP 1.57871
5 *5:16 *5:37 0.689332
6 *5:40 *5:39 1.57871
7 *5:8 *5:7 2.05775
8 *5:9 *5:37 1.57871
9 *5:9 *5:40 0.849212
10 *5:35 *29:CP 3.15723
11 *5:15 *5:35 0.689332
12 *5:5 *5:7 1.57871
13 *5:5 *5:9 2.9632
14 *5:36 *5:35 1.57871
15 *5:6 *5:5 2.9632
16 *5:33 *5:36 0.849212
17 *5:28 *5:6 1.57871
18 *5:34 *5:33 1.57871
19 *5:28 *5:29 1.30676
20 *5:29 *5:34 0.435653
21 *5:30 *5:29 1.57871
22 *5:13 *5:30 0.689332
23 *5:31 *5:30 1.57871
24 *5:14 *5:31 0.689332
25 *5:32 *5:31 1.57871
26 *5:26 *5:32 9.97864
27 *5:25 *5:26 1.57871
28 *5:12 *5:25 0.421593
29 *5:24 *5:25 1.57871
30 *5:24 *5:27 2.86619
31 *5:18 *5:27 4.45856
32 *5:17 *5:18 1.57871
33 *5:17 *5:23 13.1631851
34 *5:22 *5:23 1.57871
35 *5:11 *5:22 0.421593
36 *5:21 *5:22 1.57871
37 *5:19 *5 0.377405
38 *5:20 *5:21 0.212303
39 *5:20 *5:19 1.57871
40 *5:10 *5:20 0.374794
*END

*D_NET *6 0.00257208

*CONN
*P *6 I *C 4 35 *L 0
*I *28:I I *C 13.7 20.8 *L 0.000658 *D CKND0

*CAP
1 *6 0.000538161
2 *28:I 6.69483e-05
3 *6:2 0.000692331
4 *6:3 0.000553737
5 *6:4 0.00072091

*RES
1 *6:2 *28:I 1.57857
2 *6:2 *6:4 14.5156622
3 *6:3 *6:4 1.57857
4 *6 *6:3 12.1997
*END

*D_NET *7 0.00388316

*CONN
*I *21:Z O *C 15.5 20.6 *L 0 *D CKBD4
*P *7 O *C 0 3 *L 0.1
*I *23:A2 I *C 15.5 16 *L 0.00108 *D XOR2D1

*CAP
1 *21:Z 6.07162e-05
2 *7 0.000299603
3 *23:A2 2.95752e-05
4 *7:3 0.000155997
5 *7:4 0.000154626
6 *7:5 6.05704e-05
7 *7:6 6.05704e-05
8 *7:8 0.000315174
9 *7:9 8.11009e-05
10 *7:10 5.38889e-05
11 *7:11 0.000610148
12 *7:12 0.00063736
13 *7:13 0.0005378
14 *7:14 0.000566383
15 *7:15 0.00011622
16 *7:16 0.000143432

*RES
1 *7 *7:8 6.79166
2 *7:9 *7:8 1.57852
3 *7:9 *7:10 0.849225
4 *7:16 *21:Z 1.57852
5 *7:10 *7:11 0.318386
6 *7:15 *7:16 1.91537
7 *7:11 *7:12 12.7385664
8 *7:5 *7:15 0.318386
9 *7:13 *7:12 1.57852
10 *7:6 *7:5 0.852335
11 *7:13 *7:14 10.1909
12 *7:6 *7:3 0.318386
13 *7:4 *23:A2 3.15723
14 *7:4 *7:14 1.57852
15 *7:4 *7:3 2.72961
16 *7:7 *7:4 0.689254
*END

*D_NET *8 0.00341466

*CONN
*I *20:Z O *C 14.9 19.8 *L 0 *D CKBD4
*P *8 O *C 4 0 *L 0.1

*CAP
1 *20:Z 6.07223e-05
2 *8 3.11578e-05
3 *8:2 4.63145e-05
4 *8:3 0.000555488
5 *8:4 0.000555488
6 *8:5 8.17211e-05
7 *8:6 0.000108358
8 *8:7 0.000121336
9 *8:8 8.21433e-05
10 *8:9 0.00089245
11 *8:10 0.000879472

*RES
1 *8:7 *20:Z 1.57873
2 *8:6 *8:7 2.15211
3 *8:6 *8:10 0.637
4 *8:9 *8:10 18.6118851
5 *8:8 *8:9 1.57873
6 *8:5 *8:8 1.50915
7 *8:3 *8:5 0.405829
8 *8:4 *8:3 12.2263
9 *8:4 *8:2 0.405829
10 *8 *8:2 0.628765
*END

*D_NET *9 0.00298287

*CONN
*I *19:Z O *C 14.1 13.4 *L 0 *D CKBD4
*P *9 O *C 2 0 *L 0.1

*CAP
1 *19:Z 6.07164e-05
2 *9 9.4317e-05
3 *9:2 0.00012462
4 *9:3 0.000607329
5 *9:4 0.0005926
6 *9:5 0.00072032
7 *9:6 0.000707339
8 *9:7 7.56207e-05

*RES
1 *9:7 *19:Z 1.57867
2 *9:6 *9:7 0.636977
3 *9:5 *9:6 13.375495
4 *9:4 *9:5 1.57867
5 *9:3 *9:4 12.5771
6 *9:2 *9:3 0.811885
7 *9 *9:2 2.13809
*END

*D_NET *10 0.00333626

*CONN
*I *18:Z O *C 20.9 13.4 *L 0 *D CKBD4
*P *10 O *C 35 3 *L 0.1
*I *27:A I *C 17.5 13.8 *L 0.00166 *D HA1D0

*CAP
1 *18:Z 6.07215e-05
2 *10 0.000765622
3 *27:A 2.95859e-05
4 *10:5 5.42965e-05
5 *10:6 0.000201022
6 *10:7 0.00078119
7 *10:8 0.0006214
8 *10:9 0.0006214
9 *10:10 0.000201022

*RES
1 *10:7 *10 17.3563633
2 *10:8 *10:7 1.57869
3 *10:8 *10:9 11.4648
4 *10:4 *10:9 0.374744
5 *10:9 *18:Z 1.57869
6 *10:10 *10:9 1.57869
7 *10:6 *10:10 3.6092
8 *10:5 *27:A 3.15712
9 *10:5 *10:6 1.57869
10 *10:3 *10:5 0.689371
*END

*D_NET *11 0.000624211

*CONN
*I *29:QN O *C 20.7 20.6 *L 0 *D DFCND1
*I *29:D I *C 17.1 21 *L 0.000903 *D DFCND1

*CAP
1 *29:QN 6.69498e-05
2 *29:D 2.95789e-05
3 *11:4 5.4301e-05
4 *11:5 0.00020954
5 *11:6 5.4301e-05
6 *11:7 0.00020954

*RES
1 *11:3 *11:6 0.689312
2 *11:6 *29:QN 1.57864
3 *11:7 *11:6 1.57864
4 *11:5 *11:7 3.82156992
5 *11:4 *29:D 3.15722
6 *11:4 *11:5 1.57864
7 *11:2 *11:4 0.0795966
*END

*D_NET *12 0.00066012

*CONN
*I *27:CO O *C 16.5 13.4 *L 0 *D HA1D0
*I *25:B I *C 18.5 17.4 *L 0.00276 *D HA1D0

*CAP
1 *27:CO 2.95785e-05
2 *25:B 2.95785e-05
3 *12:2 9.25596e-05
4 *12:3 6.53503e-05
5 *12:4 3.28104e-05
6 *12:5 6.053e-05
7 *12:6 0.00012481
8 *12:7 6.053e-05
9 *12:8 9.75988e-05
10 *12:9 3.40711e-05
11 *12:10 3.26999e-05

*RES
1 *12:10 *25:B 3.1572299
2 *12:9 *12:10 0.424619
3 *12:8 *12:9 0.31844
4 *12:6 *12:8 1.70002
5 *12:7 *12:6 1.57861
6 *12:5 *12:7 2.00333023
7 *12:2 *12:5 1.57861
8 *12:3 *12:2 1.11488
9 *12:4 *12:3 0.31844
10 *27:CO *12:4 3.1572299
*END

*D_NET *13 0.000479911

*CONN
*I *27:S O *C 19.5 13.6 *L 0 *D HA1D0
*I *26:D I *C 20.3 15.8 *L 0.000923 *D DFCNQD1

*CAP
1 *27:S 6.69511e-05
2 *26:D 2.95799e-05
3 *13:2 0.00012195
4 *13:3 9.33694e-05
5 *13:5 5.68802e-05
6 *13:6 5.42992e-05
7 *13:7 5.68802e-05

*RES
1 *13:3 *27:S 1.57861
2 *13:3 *13:2 1.49156177
3 *13:5 *13:2 1.57861
4 *13:5 *13:7 0.849238
5 *13:6 *26:D 3.1572299
6 *13:6 *13:7 1.57861
7 *13:4 *13:6 0.689295
*END

*D_NET *14 0.000507409

*CONN
*I *25:CO O *C 18.1 17 *L 0 *D HA1D0
*I *23:A1 I *C 16.7 15.8 *L 0.00155 *D XOR2D1

*CAP
1 *25:CO 6.69495e-05
2 *23:A1 2.958e-05
3 *14:2 8.98897e-05
4 *14:3 0.00011847
5 *14:4 7.411e-05
6 *14:5 7.411e-05
7 *14:7 5.43008e-05

*RES
1 *14:5 *23:A1 3.1572299
2 *14:5 *14:4 1.57615805
3 *14:3 *14:4 1.57861
4 *14:3 *14:2 1.48617
5 *14:7 *14:2 1.57861
6 *14:7 *25:CO 1.57861
7 *14:6 *14:7 0.689295
*END

*D_NET *15 0.000611051

*CONN
*I *25:S O *C 21.1 17.2 *L 0 *D HA1D0
*I *24:D I *C 19.5 19.4 *L 0.000923 *D DFCNQD1

*CAP
1 *25:S 6.07203e-05
2 *24:D 6.69501e-05
3 *15:2 0.000118820674
4 *15:3 0.0001131
5 *15:5 9.85794e-05
6 *15:6 5.43002e-05
7 *15:7 9.85794e-05

*RES
1 *15:2 *24:D 1.57861
2 *15:3 *15:2 1.2785
3 *15:5 *15:3 1.57861
4 *15:5 *15:7 1.69847548
5 *15:6 *15:7 1.57861
6 *15:6 *25:S 1.57861
7 *15:4 *15:6 0.689306
*END

*D_NET *16 0.0020539

*CONN
*I *29:CDN I *C 19.5 21 *L 0.00178 *D DFCND1
*I *28:ZN O *C 14.1 20.8 *L 0 *D CKND0
*I *26:CDN I *C 17.9 15.8 *L 0.00174 *D DFCNQD1
*I *24:CDN I *C 17.1 19.4 *L 0.00174 *D DFCNQD1
*I *22:CDN I *C 14.5 17.4 *L 0.00174 *D DFCNQD1

*CAP
1 *29:CDN 2.95769e-05
2 *28:ZN 2.95769e-05
3 *26:CDN 2.95769e-05
4 *24:CDN 2.95769e-05
5 *22:CDN 2.95769e-05
6 *16:5 2.82187e-05
7 *16:6 8.65082e-05
8 *16:7 0.000129469
9 *16:8 9.96407e-05
10 *16:9 6.03798e-05
11 *16:10 8.896e-05
12 *16:11 6.55878e-05
13 *16:12 3.57595e-05
14 *16:13 0.000117307
15 *16:14 9.76431e-05
16 *16:15 6.55878e-05
17 *16:16 7.79883e-05
18 *16:17 0.00010645
19 *16:18 0.000135907
20 *16:19 8.79502e-05
21 *16:20 0.000107847
22 *16:21 6.12794e-05
23 *16:22 0.000289
24 *16:23 0.000164519

*RES
1 *16:12 *26:CDN 3.1572299
2 *16:12 *16:11 0.426161
3 *16:17 *16:11 0.955368
4 *16:17 *16:16 2.22812
5 *16:19 *16:16 0.31844
6 *16:9 *29:CDN 3.1572299
7 *16:20 *24:CDN 3.1572299
8 *16:19 *16:20 1.48617
9 *16:10 *16:9 1.11208
10 *16:8 *22:CDN 3.1572299
11 *16:20 *16:21 0.424619
12 *16:23 *16:10 1.57861
13 *16:8 *16:7 2.06172
14 *16:22 *16:21 1.57861
15 *16:22 *16:23 2.76696014
16 *16:7 *16:15 0.955368
17 *16:18 *16:22 2.13003
18 *16:15 *16:14 0.426161
19 *16:14 *16:18 1.57861
20 *16:14 *16:13 0.852321
21 *16:5 *28:ZN 3.1572299
22 *16:6 *16:13 1.5923
23 *16:6 *16:5 0.269927
*END

*D_NET *17 0.000573481

*CONN
*I *23:Z O *C 15.1 16.2 *L 0 *D XOR2D1
*I *22:D I *C 16.9 17.4 *L 0.000923 *D DFCNQD1

*CAP
1 *23:Z 6.07197e-05
2 *22:D 2.958e-05
3 *17:2 2.787e-05
4 *17:3 5.64501e-05
5 *17:4 0.0001016
6 *17:5 0.0001016
7 *17:7 9.78296289e-05
8 *17:8 9.78296289e-05

*RES
1 *17:8 *22:D 3.1572299
2 *17:7 *17:8 1.48
3 *17:4 *17:7 1.57861
4 *17:5 *17:4 2.25817871
5 *17:2 *17:5 1.57861
6 *17:3 *17:2 0.269927
7 *17:3 *23:Z 1.57861
8 *17:6 *17:3 0.374805
*END

