*SPEF "IEEE 1481-1998"
*DESIGN "top_wrapper"
*DATE "Wed Aug 12 04:41:43 2026"
*VENDOR "Cadence Design Systems, Inc."
*PROGRAM "Innovus"
*VERSION "21.18-s099_1"
*DESIGN_FLOW "COUPLING C" "PIN_CAP NONE" "NAME_SCOPE LOCAL"
*DIVIDER /
*DELIMITER :
*BUS_DELIMITER []
*T_UNIT 1 NS
*C_UNIT 1 PF
*R_UNIT 1 OHM
*L_UNIT 1 HENRY

// MMMC spef file for corner 'rc_worst'

*NAME_MAP

*1 FE_OFN133_wOut_2
*2 FE_OFN132_wOut_1
*3 FE_OFN131_wOut_3
*4 FE_OFN130_wOut_4
*5 FE_OFN129_wOut_0
*6 FE_OFN128_FE_OFN43_TIE_LTIELO_NET
*7 FE_OFN127_FE_OFN48_TIE_LTIEHI_5_NET
*8 FE_OFN126_FE_OFN103_n
*9 FE_OFN115_n
*10 FE_OFN114_n
*11 FE_OFN113_n
*12 FE_OFN112_FE_OFN49_TIE_LTIEHI_5_NET
*13 FE_OFN111_FE_OFN100_n
*14 FE_OFN110_FE_OFN47_TIE_LTIEHI_5_NET
*15 FE_OFN103_n
*16 FE_OFN102_n
*17 FE_OFN101_n
*18 FE_OFN100_n
*19 FE_OFN99_n
*20 FE_OFN97_TIE_LTIEHI_NET
*21 FE_OFN96_TIE_LTIEHI_NET
*22 FE_OFN95_TIE_LTIEHI_NET
*23 FE_OFN94_TIE_LTIEHI_NET
*24 FE_OFN93_TIE_LTIEHI_NET
*25 FE_OFN91_TIE_LTIEHI_NET
*26 FE_OFN90_TIE_LTIEHI_NET
*27 FE_OFN88_TIE_LTIEHI_1_NET
*28 FE_OFN87_TIE_LTIEHI_1_NET
*29 FE_OFN86_TIE_LTIEHI_1_NET
*30 FE_OFN85_TIE_LTIEHI_1_NET
*31 FE_OFN84_TIE_LTIEHI_1_NET
*32 FE_OFN83_TIE_LTIEHI_1_NET
*33 FE_OFN82_TIE_LTIEHI_1_NET
*34 FE_OFN81_TIE_LTIEHI_2_NET
*35 FE_OFN80_TIE_LTIEHI_2_NET
*36 FE_OFN79_TIE_LTIEHI_2_NET
*37 FE_OFN78_TIE_LTIEHI_2_NET
*38 FE_OFN77_TIE_LTIEHI_2_NET
*39 FE_OFN76_TIE_LTIEHI_2_NET
*40 FE_OFN75_TIE_LTIEHI_2_NET
*41 FE_OFN74_TIE_LTIEHI_2_NET
*42 FE_OFN73_TIE_LTIEHI_2_NET
*43 FE_OFN72_TIE_LTIEHI_2_NET
*44 FE_OFN71_TIE_LTIEHI_2_NET
*45 FE_OFN70_TIE_LTIEHI_3_NET
*46 FE_OFN69_TIE_LTIEHI_3_NET
*47 FE_OFN68_TIE_LTIEHI_3_NET
*48 FE_OFN66_TIE_LTIEHI_3_NET
*49 FE_OFN64_TIE_LTIEHI_3_NET
*50 FE_OFN63_TIE_LTIEHI_3_NET
*51 FE_OFN62_TIE_LTIEHI_3_NET
*52 FE_OFN61_TIE_LTIEHI_4_NET
*53 FE_OFN60_TIE_LTIEHI_4_NET
*54 FE_OFN59_TIE_LTIEHI_4_NET
*55 FE_OFN58_TIE_LTIEHI_4_NET
*56 FE_OFN57_TIE_LTIEHI_4_NET
*57 FE_OFN56_TIE_LTIEHI_4_NET
*58 FE_OFN55_TIE_LTIEHI_4_NET
*59 FE_OFN54_TIE_LTIEHI_4_NET
*60 FE_OFN53_TIE_LTIEHI_4_NET
*61 FE_OFN52_TIE_LTIEHI_4_NET
*62 FE_OFN51_TIE_LTIEHI_5_NET
*63 FE_OFN50_TIE_LTIEHI_5_NET
*64 FE_OFN48_TIE_LTIEHI_5_NET
*65 FE_OFN46_TIE_LTIEHI_5_NET
*66 FE_OFN45_TIE_LTIEHI_5_NET
*67 FE_OFN44_TIE_LTIELO_NET
*68 FE_OFN43_TIE_LTIELO_NET
*69 FE_OFN42_TIE_LTIELO_NET
*70 FE_OFN40_TIE_LTIELO_NET
*71 FE_OFN39_TIE_LTIELO_NET
*72 FE_OFN38_TIE_LTIELO_NET
*73 FE_OFN37_TIE_LTIELO_NET
*74 FE_OFN36_TIE_LTIELO_NET
*75 FE_OFN34_TIE_LTIELO_1_NET
*76 FE_OFN33_TIE_LTIELO_1_NET
*77 FE_OFN32_TIE_LTIELO_1_NET
*78 FE_OFN31_TIE_LTIELO_1_NET
*79 FE_OFN30_TIE_LTIELO_1_NET
*80 FE_OFN29_TIE_LTIELO_1_NET
*81 TIE_LTIELO_1_NET
*82 TIE_LTIELO_NET
*83 TIE_LTIEHI_5_NET
*84 TIE_LTIEHI_4_NET
*85 TIE_LTIEHI_3_NET
*86 TIE_LTIEHI_2_NET
*87 TIE_LTIEHI_1_NET
*88 TIE_LTIEHI_NET
*89 FE_OFN17_wOut_7
*90 FE_OFN16_wOut_5
*91 FE_OFN15_wOut_6
*92 FE_OFN14_n_34
*93 FE_OFN13_n_33
*94 FE_OFN12_n_32
*95 FE_OFN11_n_30
*96 FE_OFN10_n_29
*97 FE_OFN9_n_29
*98 FE_OFN8_n_28
*99 A[7]
*100 A[6]
*101 A[5]
*102 A[4]
*103 A[3]
*104 A[2]
*105 A[1]
*106 A[0]
*107 B[7]
*108 B[6]
*109 B[5]
*110 B[4]
*111 B[3]
*112 B[2]
*113 B[1]
*114 B[0]
*115 Sel[1]
*116 Sel[0]
*117 clk_in
*118 rst
*119 Out[7]
*120 Out[6]
*121 Out[5]
*122 Out[4]
*123 Out[3]
*124 Out[2]
*125 Out[1]
*126 Out[0]
*127 wA[7]
*128 wA[6]
*129 wA[5]
*130 wA[4]
*131 wA[3]
*132 wA[2]
*133 wA[1]
*134 wA[0]
*135 wB[7]
*136 wB[6]
*137 wB[5]
*138 wB[4]
*139 wB[3]
*140 wB[2]
*141 wB[1]
*142 wB[0]
*143 wOut[7]
*144 wOut[6]
*145 wOut[5]
*146 wOut[4]
*147 wOut[3]
*148 wOut[2]
*149 wOut[1]
*150 wOut[0]
*151 wSel[1]
*152 wSel[0]
*153 UNCONNECTED
*154 UNCONNECTED0
*155 UNCONNECTED1
*156 UNCONNECTED2
*157 UNCONNECTED3
*158 UNCONNECTED4
*159 UNCONNECTED5
*160 UNCONNECTED6
*161 UNCONNECTED7
*162 n_0
*163 n_1
*164 n_2
*165 n_3
*166 n_4
*167 n_5
*168 n_6
*169 n_7
*170 n_8
*171 n_9
*172 n_10
*173 n_11
*174 n_12
*175 n_13
*176 n_14
*177 n_15
*178 n_16
*179 n_17
*180 n_18
*181 n_19
*182 n_20
*183 n_21
*184 n_22
*185 n_23
*186 n_24
*187 n_25
*188 n_26
*189 n_27
*190 n_28
*191 n_29
*192 n_30
*193 n_31
*194 n_32
*195 n_33
*196 n_34
*197 n_35
*198 wclk
*199 wrst
*200 FE_OFC133_wOut_2
*201 FE_OFC132_wOut_1
*202 FE_OFC131_wOut_3
*203 FE_OFC130_wOut_4
*204 FE_OFC129_wOut_0
*205 FE_OFC128_FE_OFN43_TIE_LTIELO_NET
*206 FE_OFC127_FE_OFN48_TIE_LTIEHI_5_NET
*207 FE_OFC126_FE_OFN103_n
*208 FE_OFC115_TIE_LTIEHI_4_NET
*209 FE_OFC114_TIE_LTIEHI_3_NET
*210 FE_OFC113_TIE_LTIEHI_3_NET
*211 FE_OFC112_FE_OFN49_TIE_LTIEHI_5_NET
*212 FE_OFC111_FE_OFN100_n
*213 FE_OFC110_FE_OFN47_TIE_LTIEHI_5_NET
*214 FE_OFC103_TIE_LTIEHI_1_NET
*215 FE_OFC102_TIE_LTIEHI_1_NET
*216 FE_OFC101_TIE_LTIEHI_NET
*217 FE_OFC100_TIE_LTIEHI_NET
*218 FE_OFC99_TIE_LTIEHI_NET
*219 FE_OFC97_TIE_LTIEHI_NET
*220 FE_OFC96_TIE_LTIEHI_NET
*221 FE_OFC95_TIE_LTIEHI_NET
*222 FE_OFC94_TIE_LTIEHI_NET
*223 FE_OFC93_TIE_LTIEHI_NET
*224 FE_OFC91_TIE_LTIEHI_NET
*225 FE_OFC90_TIE_LTIEHI_NET
*226 FE_OFC88_TIE_LTIEHI_1_NET
*227 FE_OFC87_TIE_LTIEHI_1_NET
*228 FE_OFC86_TIE_LTIEHI_1_NET
*229 FE_OFC85_TIE_LTIEHI_1_NET
*230 FE_OFC84_TIE_LTIEHI_1_NET
*231 FE_OFC83_TIE_LTIEHI_1_NET
*232 FE_OFC82_TIE_LTIEHI_1_NET
*233 FE_OFC81_TIE_LTIEHI_2_NET
*234 FE_OFC80_TIE_LTIEHI_2_NET
*235 FE_OFC79_TIE_LTIEHI_2_NET
*236 FE_OFC78_TIE_LTIEHI_2_NET
*237 FE_OFC77_TIE_LTIEHI_2_NET
*238 FE_OFC76_TIE_LTIEHI_2_NET
*239 FE_OFC75_TIE_LTIEHI_2_NET
*240 FE_OFC74_TIE_LTIEHI_2_NET
*241 FE_OFC73_TIE_LTIEHI_2_NET
*242 FE_OFC72_TIE_LTIEHI_2_NET
*243 FE_OFC71_TIE_LTIEHI_2_NET
*244 FE_OFC70_TIE_LTIEHI_3_NET
*245 FE_OFC69_TIE_LTIEHI_3_NET
*246 FE_OFC68_TIE_LTIEHI_3_NET
*247 FE_OFC66_TIE_LTIEHI_3_NET
*248 FE_OFC64_TIE_LTIEHI_3_NET
*249 FE_OFC63_TIE_LTIEHI_3_NET
*250 FE_OFC62_TIE_LTIEHI_3_NET
*251 FE_OFC61_TIE_LTIEHI_4_NET
*252 FE_OFC60_TIE_LTIEHI_4_NET
*253 FE_OFC59_TIE_LTIEHI_4_NET
*254 FE_OFC58_TIE_LTIEHI_4_NET
*255 FE_OFC57_TIE_LTIEHI_4_NET
*256 FE_OFC56_TIE_LTIEHI_4_NET
*257 FE_OFC55_TIE_LTIEHI_4_NET
*258 FE_OFC54_TIE_LTIEHI_4_NET
*259 FE_OFC53_TIE_LTIEHI_4_NET
*260 FE_OFC52_TIE_LTIEHI_4_NET
*261 FE_OFC51_TIE_LTIEHI_5_NET
*262 FE_OFC50_TIE_LTIEHI_5_NET
*263 FE_OFC48_TIE_LTIEHI_5_NET
*264 FE_OFC46_TIE_LTIEHI_5_NET
*265 FE_OFC45_TIE_LTIEHI_5_NET
*266 FE_OFC44_TIE_LTIELO_NET
*267 FE_OFC43_TIE_LTIELO_NET
*268 FE_OFC42_TIE_LTIELO_NET
*269 FE_OFC40_TIE_LTIELO_NET
*270 FE_OFC39_TIE_LTIELO_NET
*271 FE_OFC38_TIE_LTIELO_NET
*272 FE_OFC37_TIE_LTIELO_NET
*273 FE_OFC36_TIE_LTIELO_NET
*274 FE_OFC34_TIE_LTIELO_1_NET
*275 FE_OFC33_TIE_LTIELO_1_NET
*276 FE_OFC32_TIE_LTIELO_1_NET
*277 FE_OFC31_TIE_LTIELO_1_NET
*278 FE_OFC30_TIE_LTIELO_1_NET
*279 FE_OFC29_TIE_LTIELO_1_NET
*280 TIE_LTIELO_1
*281 TIE_LTIELO
*282 TIE_LTIEHI_5
*283 TIE_LTIEHI_4
*284 TIE_LTIEHI_3
*285 TIE_LTIEHI_2
*286 TIE_LTIEHI_1
*287 TIE_LTIEHI
*288 FE_OFC17_wOut_7
*289 FE_OFC16_wOut_5
*290 FE_OFC15_wOut_6
*291 FE_OFC14_n_34
*292 FE_OFC13_n_33
*293 FE_OFC12_n_32
*294 FE_OFC11_n_30
*295 FE_OFC10_n_29
*296 FE_OFC9_n_29
*297 FE_OFC8_n_28
*298 A_inst0
*299 A_inst1
*300 A_inst2
*301 A_inst3
*302 A_inst4
*303 A_inst5
*304 A_inst6
*305 A_inst7
*306 B_inst0
*307 B_inst1
*308 B_inst2
*309 B_inst3
*310 B_inst4
*311 B_inst5
*312 B_inst6
*313 B_inst7
*314 clk_pad
*315 out_inst0
*316 out_inst1
*317 out_inst2
*318 out_inst3
*319 out_inst4
*320 out_inst5
*321 out_inst6
*322 out_inst7
*323 rst_inst
*324 sel_inst0
*325 sel_inst1
*326 u_alu_core_Out_reg\[3\]
*327 u_alu_core_Out_reg\[1\]
*328 u_alu_core_Out_reg\[0\]
*329 u_alu_core_Out_reg\[7\]
*330 u_alu_core_Out_reg\[5\]
*331 u_alu_core_Out_reg\[2\]
*332 u_alu_core_Out_reg\[4\]
*333 u_alu_core_Out_reg\[6\]
*334 g978__2398
*335 g979__5107
*336 g980__6260
*337 g981__4319
*338 g982__8428
*339 g983__5526
*340 g984__6783
*341 g985__3680
*342 g986__1617
*343 g987__2802
*344 g988__1705
*345 g989__5122
*346 g990__8246
*347 g991__7098
*348 g992__6131
*349 g993__1881
*350 g994__5115
*351 g995__7482
*352 g996__4733
*353 g997__6161
*354 g998__9315
*355 g999__9945
*356 g1000__2883
*357 g1001__2346
*358 g1002__1666
*359 g1003__7410
*360 g1004__6417
*361 g1005__5477
*362 g1006__2398
*363 g1007__5107
*364 g1008__6260
*365 g1009__4319
*366 g1010__8428
*367 g1011__5526
*368 g1012__6783
*369 g1013__3680


*PORTS

*99 I *C -302.315 140
*100 I *C -302.315 105
*101 I *C -302.315 35
*102 I *C -302.315 0
*103 I *C -302.315 -35
*104 I *C -302.315 -105
*105 I *C -302.315 -140
*106 I *C -302.315 -175
*107 I *C 113.07 302.315
*108 I *C 80.765 302.315
*109 I *C 16.155 302.315
*110 I *C -16.15 302.315
*111 I *C -48.455 302.315
*112 I *C -113.07 302.315
*113 I *C -145.38 302.315
*114 I *C -177.69 302.315
*115 I *C 177.69 302.315
*116 I *C 145.38 302.315
*117 I *C -22.5 -302.315
*118 I *C -302.315 175
*119 O *C 302.315 -180
*120 O *C 302.315 -141.11
*121 O *C 302.315 -102.22
*122 O *C 302.315 -24.44
*123 O *C 302.315 14.445
*124 O *C 302.315 53.33
*125 O *C 302.315 131.11
*126 O *C 302.315 170


*D_NET *1 0.00520238

*CONN
*I *317:I I *C 195.5 40.715 *L 0.0897 *D PDDW16DGZ
*I *200:Z O *C 173.9 63 *L 0 *D CKBD4

*CAP
1 *317:I 2.08405e-05
2 *200:Z 6.07131e-05
3 *1:2 0.00021519
4 *1:3 0.00021519
5 *1:4 8.35409e-05
6 *1:5 0.000110755
7 *1:6 0.000959735
8 *1:7 0.0010866
9 *1:8 0.000932539
10 *1:9 0.00011174
11 *1:10 0.00011174
12 *1:11 0.00117335
13 *1:12 0.000120441

*RES
1 *1:12 *317:I 0.424771
2 *1:5 *200:Z 1.57863
3 *1:11 *1:12 2.2293
4 *1:4 *1:5 1.27865
5 *1:7 *1:11 21.8678722
6 *1:4 *1:10 0.318328
7 *1:6 *1:7 1.57863
8 *1:9 *1:10 1.91464
9 *1:6 *1:8 19.3202
10 *1:3 *1:9 0.318328
11 *1:2 *1:8 0.318328
12 *1:2 *1:3 4.03382
*END

*D_NET *2 0.00565232

*CONN
*I *316:I I *C 195.5 118.495 *L 0.0897 *D PDDW16DGZ
*I *201:Z O *C 173.9 88.2 *L 0 *D CKBD4

*CAP
1 *316:I 2.84638e-05
2 *201:Z 6.07263e-05
3 *2:2 0.00113673195
4 *2:3 0.00112374
5 *2:4 7.45333e-05
6 *2:5 6.02927e-05
7 *2:6 0.000113977
8 *2:7 0.000141192
9 *2:8 0.000124193
10 *2:9 0.000124193
11 *2:10 0.00107616
12 *2:11 0.000262471
13 *2:12 0.00107616
14 *2:13 0.000249479

*RES
1 *2:13 *316:I 0.637084
2 *2:11 *2:13 4.45827
3 *2:12 *2:11 1.5785
4 *2:10 *2:12 21.6555634
5 *2:2 *2:10 1.5785
6 *2:3 *2:2 21.231
7 *2:4 *2:3 0.637084
8 *2:5 *2:4 0.809903
9 *2:5 *2:9 0.318542
10 *2:8 *2:9 2.33553
11 *2:6 *2:8 0.318542
12 *2:7 *2:6 1.79923
13 *201:Z *2:7 1.5785
*END

*D_NET *3 0.0253413

*CONN
*I *318:I I *C 195.5 1.83 *L 0.0897 *D PDDW16DGZ
*I *202:Z O *C 18.1 51.4 *L 0 *D BUFFD6

*CAP
1 *318:I 0.000135454
2 *202:Z 6.073e-05
3 *3:2 0.0017114
4 *3:3 0.00865204
5 *3:4 0.0017114
6 *3:5 0.00101115
7 *3:6 0.00103703
8 *3:7 0.00865204
9 *3:8 0.00101115
10 *3:9 0.00112377
11 *3:10 0.000235131

*RES
1 *3:10 *318:I 2.75935
2 *3:9 *3:10 2.2287
3 *3:6 *3:9 19.5328
4 *3:5 *3:6 1.5793
5 *3:5 *3:8 19.1082
6 *3:7 *3:8 1.5793
7 *3:3 *3:7 165.601364
8 *3:4 *202:Z 1.5793
9 *3:2 *3:3 1.5793
10 *3:2 *3:4 35.2423
*END

*D_NET *4 0.0262722

*CONN
*I *319:I I *C 195.5 -37.055 *L 0.0897 *D PDDW16DGZ
*I *203:Z O *C 18.5 15.4 *L 0 *D BUFFD6

*CAP
1 *319:I 2.08411e-05
2 *203:Z 6.07409e-05
3 *4:2 0.0011102
4 *4:3 0.00898568
5 *4:4 0.0011102
6 *4:5 0.0018092
7 *4:6 0.00108662
8 *4:7 0.00898568
9 *4:8 0.0018092
10 *4:9 0.00117341
11 *4:10 0.000120385

*RES
1 *4:10 *319:I 0.423427
2 *4:9 *4:10 2.22803
3 *4:6 *4:9 21.867
4 *4:5 *4:6 1.57777
5 *4:5 *4:8 34.8193
6 *4:7 *4:8 1.57777
7 *4:3 *4:7 165.176743
8 *4:4 *203:Z 1.57777
9 *4:2 *4:3 1.57777
10 *4:2 *4:4 22.5046
*END

*D_NET *5 0.0257458

*CONN
*I *315:I I *C 195.5 157.385 *L 0.0897 *D PDDW16DGZ
*I *204:Z O *C 20.5 95.4 *L 0 *D BUFFD6

*CAP
1 *315:I 2.84636e-05
2 *204:Z 6.06792e-05
3 *5:2 0.00291131
4 *5:3 0.00291131
5 *5:5 5.43396e-05
6 *5:6 0.00847892
7 *5:7 0.00847892
8 *5:8 0.00102443
9 *5:9 8.11213e-05
10 *5:10 0.00102443
11 *5:11 5.39515e-05
12 *5:12 0.000311806
13 *5:13 0.000326038

*RES
1 *5:13 *315:I 0.636067
2 *5:12 *5:13 6.36818
3 *5:11 *5:12 0.318033
4 *5:9 *5:11 0.848924
5 *5:10 *5:9 1.57765
6 *5:8 *5:10 20.5945
7 *5:2 *5:8 1.57765
8 *5:3 *5:2 56.8979
9 *5:7 *5:3 1.57765
10 *5:6 *5:7 164.115204
11 *5:5 *5:6 1.57765
12 *5:5 *204:Z 1.57765
13 *5:4 *5:5 0.37563
*END

*D_NET *6 0.00626398

*CONN
*I *321:REN I *C 195.5 -136.06 *L 0.0635 *D PDDW16DGZ
*I *321:OEN I *C 195.5 -140.02 *L 0.0874 *D PDDW16DGZ
*I *205:Z O *C 173.1 -174.6 *L 0 *D BUFFD8

*CAP
1 *321:REN 2.84694e-05
2 *321:OEN 5.69213e-05
3 *205:Z 6.07254e-05
4 *6:3 0.00113834
5 *6:4 0.00113834
6 *6:5 0.00093763
7 *6:6 0.000924655
8 *6:7 7.56288e-05
9 *6:8 0.000589432
10 *6:9 0.000589432
11 *6:10 0.000105401
12 *6:11 7.81822e-05
13 *6:12 4.39981e-05
14 *6:13 4.39981e-05
15 *6:14 0.000113408
16 *6:15 0.000127652
17 *6:16 0.000105905
18 *6:17 0.000105905

*RES
1 *6:17 *321:REN 0.636773
2 *6:16 *6:17 1.6984
3 *6:16 *321:OEN 0.636773
4 *6:15 *321:OEN 0.636773
5 *6:14 *6:15 2.12325
6 *6:13 *6:14 0.318386
7 *6:12 *6:13 0.636773
8 *6:9 *6:12 0.318386
9 *6:8 *6:9 12.314
10 *6:8 *6:11 0.318386
11 *6:10 *6:11 1.27388
12 *6:3 *6:10 1.57846
13 *6:4 *6:3 22.0801811
14 *6:5 *6:4 1.57846
15 *6:6 *6:5 18.0463
16 *6:7 *6:6 0.636773
17 *205:Z *6:7 1.57846
*END

*D_NET *7 0.0056801

*CONN
*I *313:OEN I *C 111.98 195.5 *L 0.0874 *D PDDW16DGZ
*I *206:Z O *C 139.5 173.8 *L 0 *D CKBD4

*CAP
1 *313:OEN 5.69264e-05
2 *206:Z 6.07175e-05
3 *7:2 0.000136124
4 *7:3 0.000136124
5 *7:4 8.28101e-05
6 *7:5 8.41779e-05
7 *7:6 0.000311289
8 *7:7 0.000338496
9 *7:9 0.00097432
10 *7:10 0.000491776
11 *7:11 0.000491776
12 *7:12 0.000607383
13 *7:13 0.000622979
14 *7:14 0.00014384
15 *7:15 0.000156819
16 *7:16 0.000930254
17 *7:17 5.42949e-05

*RES
1 *7:9 *313:OEN 1.27375
2 *7:9 *7:16 18.6832314
3 *7:15 *7:16 1.57851
4 *7:14 *7:15 2.3354
5 *7:11 *7:14 0.636877
6 *7:10 *7:11 9.44653
7 *7:10 *7:13 0.636877
8 *7:12 *7:13 10.4534
9 *7:7 *7:12 1.57851
10 *7:7 *7:6 5.52007
11 *7:6 *7:3 0.318438
12 *7:3 *7:2 2.3354
13 *7:5 *7:2 0.318438
14 *7:5 *7:4 1.27375
15 *7:17 *7:4 1.57851
16 *7:17 *206:Z 1.57851
17 *7:8 *7:17 0.689332
*END

*D_NET *8 0.00306887

*CONN
*I *301:I I *C -195.5 -22.385 *L 0.0897 *D PDDW16DGZ
*I *207:Z O *C -171.3 -24.2 *L 0 *D CKBD4

*CAP
1 *301:I 0.00127109
2 *207:Z 6.07205e-05
3 *8:2 0.00128531
4 *8:3 3.74796e-05
5 *8:4 0.000189065
6 *8:5 0.000189065
7 *8:6 3.61264e-05

*RES
1 *8:4 *207:Z 1.57856
2 *8:4 *8:5 2.9725
3 *8:6 *8:5 1.57856
4 *8:3 *8:6 0.424478
5 *8:2 *8:3 0.318648
6 *301:I *8:2 25.3126163
*END

*D_NET *9 0.00244381

*CONN
*I *310:OEN I *C -17.24 195.5 *L 0.0874 *D PDDW16DGZ
*I *208:Z O *C -16.7 173.8 *L 0 *D CKBD4

*CAP
1 *310:OEN 0.00106472
2 *208:Z 6.07233e-05
3 *9:2 5.32418e-05
4 *9:3 2.46642e-05
5 *9:8 5.42942e-05
6 *9:9 5.42942e-05
7 *9:10 5.42942e-05
8 *9:11 0.00107758

*RES
1 *9:11 *310:OEN 23.3540382
2 *9:10 *9:11 1.57865
3 *9:7 *9:10 0.689189
4 *9:9 *9:10 1.57865
5 *9:6 *9:9 0.079467
6 *9:2 *9:9 1.57865
7 *9:5 *9:3 0.374885
8 *9:3 *9:2 0.2131
9 *9:8 *9:3 1.57865
10 *9:8 *208:Z 1.57865
11 *9:4 *9:8 0.079467
*END

*D_NET *10 0.00519199

*CONN
*I *308:OEN I *C -114.16 195.5 *L 0.0874 *D PDDW16DGZ
*I *209:Z O *C -139.7 173.8 *L 0 *D CKBD4

*CAP
1 *308:OEN 0.00018842
2 *209:Z 6.0719e-05
3 *10:2 0.000907707
4 *10:3 3.69566e-05
5 *10:4 0.000907707
6 *10:5 0.00141057
7 *10:6 0.00141057
8 *10:7 6.80802e-05
9 *10:8 0.00020127

*RES
1 *10:8 *308:OEN 4.03408
2 *10:7 *10:8 1.57851
3 *10:6 *10:7 0.405984
4 *10:5 *10:6 30.6880627
5 *10:3 *10:5 0.405984
6 *10:4 *10:3 1.57851
7 *10:2 *10:4 18.2585
8 *209:Z *10:2 1.57851
*END

*D_NET *11 0.005484

*CONN
*I *309:OEN I *C -49.545 195.5 *L 0.0874 *D PDDW16DGZ
*I *210:Z O *C -55.9 173.8 *L 0 *D CKBD4

*CAP
1 *309:OEN 3.59632e-05
2 *210:Z 6.07195e-05
3 *11:5 0.000121652
4 *11:6 9.3089e-05
5 *11:7 5.43041e-05
6 *11:8 5.43041e-05
7 *11:9 0.000109726
8 *11:10 0.000109726
9 *11:11 5.43041e-05
10 *11:12 0.000426208
11 *11:13 0.00017742
12 *11:14 0.000485489
13 *11:15 0.00174452
14 *11:16 0.000212052
15 *11:17 0.00174452

*RES
1 *11:13 *309:OEN 0.955457
2 *11:13 *11:16 3.18467
3 *11:17 *11:16 0.207541
4 *11:15 *11:17 1.25009
5 *11:14 *11:15 0.207541
6 *11:12 *11:14 9.34161568
7 *11:11 *11:12 1.57865
8 *11:4 *11:11 0.689332
9 *11:10 *11:11 1.57865
10 *11:9 *11:10 1.91077
11 *11:5 *210:Z 1.57865
12 *11:8 *11:9 1.57865
13 *11:3 *11:8 0.689332
14 *11:5 *11:6 1.69853
15 *11:7 *11:8 1.57865
16 *11:7 *11:6 1.57865
17 *11:2 *11:7 0.689332
*END

*D_NET *12 0.00240423

*CONN
*I *324:OEN I *C 144.29 195.5 *L 0.0874 *D PDDW16DGZ
*I *211:Z O *C 145.7 173.8 *L 0 *D CKBD4

*CAP
1 *324:OEN 9.91876e-05
2 *211:Z 6.07244e-05
3 *12:2 0.000113414
4 *12:3 0.00107906
5 *12:4 0.00105184

*RES
1 *12:3 *211:Z 1.57874
2 *12:3 *12:4 20.5940151
3 *12:2 *324:OEN 2.123
4 *12:2 *12:4 0.318325
*END

*D_NET *13 0.00393166

*CONN
*I *301:REN I *C -195.5 -40.05 *L 0.0635 *D PDDW16DGZ
*I *212:Z O *C -172.5 -55.8 *L 0 *D CKBD3

*CAP
1 *301:REN 0.00117501
2 *212:Z 6.07207e-05
3 *13:2 0.000702674
4 *13:3 0.000729881
5 *13:4 0.00118786
6 *13:5 5.13679e-05
7 *13:6 2.41433e-05

*RES
1 *13:5 *212:Z 1.57869
2 *13:5 *13:6 0.212258
3 *13:2 *13:6 0.318568
4 *13:2 *13:3 14.4371
5 *13:4 *13:3 1.57869
6 *301:REN *13:4 23.7786579
*END

*D_NET *14 0.00532749

*CONN
*I *324:I I *C 157.995 195.5 *L 0.0897 *D PDDW16DGZ
*I *213:Z O *C 130.5 173.8 *L 0 *D CKBD4

*CAP
1 *324:I 0.000188424
2 *213:Z 6.07167e-05
3 *14:2 6.13914e-05
4 *14:3 0.000867979
5 *14:4 3.69473e-05
6 *14:5 0.00089519
7 *14:6 0.00147373
8 *14:7 0.00147373
9 *14:8 6.80927e-05
10 *14:9 0.000201287

*RES
1 *14:9 *324:I 4.03366
2 *14:8 *14:9 1.57874
3 *14:7 *14:8 0.405661
4 *14:6 *14:7 32.7003937
5 *14:4 *14:6 0.405661
6 *14:5 *14:4 1.57874
7 *14:3 *14:5 18.2588
8 *14:2 *14:3 0.318342
9 *213:Z *14:2 1.57874
*END

*D_NET *15 0.00490911

*CONN
*I *207:I I *C -172.5 -24.6 *L 0.00184 *D CKBD4
*I *301:OEN I *C -195.5 -36.09 *L 0.0874 *D PDDW16DGZ
*I *214:ZN O *C -173.5 -24.2 *L 0 *D INVD6

*CAP
1 *207:I 2.95701e-05
2 *301:OEN 2.84652e-05
3 *214:ZN 6.07132e-05
4 *15:3 0.00122728
5 *15:4 0.00122591
6 *15:5 7.42529e-05
7 *15:6 7.562e-05
8 *15:7 4.82972e-05
9 *15:8 3.40646e-05
10 *15:9 4.39899e-05
11 *15:10 4.39899e-05
12 *15:11 4.39899e-05
13 *15:12 4.39899e-05
14 *15:13 4.43458e-05
15 *15:14 7.15562e-05
16 *15:15 0.000113411
17 *15:16 0.000113411
18 *15:17 0.000490257
19 *15:18 0.000490257
20 *15:19 8.98526e-05
21 *15:20 0.000249295
22 *15:21 0.000219575
23 *15:22 4.70425e-05

*RES
1 *15:19 *214:ZN 1.57863
2 *15:22 *207:I 3.15725
3 *15:19 *15:20 0.955318
4 *15:20 *15:22 0.63699
5 *15:20 *15:21 3.60939
6 *15:5 *15:21 1.57863
7 *15:6 *15:5 1.06543
8 *15:6 *15:3 0.318328
9 *15:4 *15:3 21.8678722
10 *15:14 *15:4 1.57863
11 *15:13 *15:14 0.63699
12 *15:13 *15:18 0.318328
13 *15:17 *15:18 10.1908
14 *15:12 *15:17 0.318328
15 *15:11 *15:12 0.63699
16 *15:11 *15:16 0.318328
17 *15:15 *15:16 2.12319
18 *15:10 *15:15 0.318328
19 *15:9 *15:10 0.63699
20 *15:8 *15:9 0.318328
21 *15:7 *15:8 0.424771
22 *301:OEN *15:7 0.63699
*END

*D_NET *16 0.00034784

*CONN
*I *215:ZN O *C -173.9 -23.4 *L 0 *D INVD1
*I *214:I I *C -174.3 -24.6 *L 0.0057 *D INVD6

*CAP
1 *215:ZN 6.07193e-05
2 *214:I 2.95805e-05
3 *16:2 8.31597e-05
4 *16:3 9.876e-05
5 *16:4 7.56203e-05

*RES
1 *16:4 *215:ZN 1.57861
2 *16:3 *16:4 0.636928
3 *16:2 *16:3 1.48616612
4 *214:I *16:2 3.1572299
*END

*D_NET *17 0.00569106

*CONN
*I *300:REN I *C -195.5 -110.05 *L 0.0635 *D PDDW16DGZ
*I *299:I I *C -195.5 -127.385 *L 0.0897 *D PDDW16DGZ
*I *216:Z O *C -172.5 -109.8 *L 0 *D BUFFD8

*CAP
1 *300:REN 3.12796e-05
2 *299:I 5.28306e-05
3 *216:Z 6.07124e-05
4 *17:3 0.00013201
5 *17:4 0.000161728
6 *17:5 0.000253016
7 *17:6 0.000253016
8 *17:7 7.699e-05
9 *17:8 4.97655e-05
10 *17:9 3.68577e-05
11 *17:10 4.5501e-05
12 *17:11 6.57004e-05
13 *17:12 7.67996e-05
14 *17:13 4.95942e-05
15 *17:14 0.000295718
16 *17:15 0.00124766
17 *17:16 0.00039346
18 *17:17 9.76272e-05
19 *17:18 3.5487e-05
20 *17:19 0.000129611
21 *17:20 0.000129611
22 *17:21 0.000369339
23 *17:22 0.00124766
24 *17:23 0.000399057

*RES
1 *300:REN *17:10 0.637064
2 *17:9 *17:10 0.318348
3 *17:9 *17:18 0.42471
4 *17:3 *216:Z 1.57844
5 *17:7 *17:18 1.57844
6 *17:4 *17:3 1.91082
7 *17:8 *17:7 0.63928
8 *17:4 *17:23 1.59248
9 *17:8 *17:5 0.318348
10 *17:21 *17:23 6.79388
11 *17:6 *17:5 4.6707
12 *17:22 *17:21 1.57844
13 *17:17 *17:6 0.318348
14 *17:15 *17:22 24.2032757
15 *17:16 *17:17 1.69847
16 *17:16 *17:15 1.57844
17 *17:14 *17:16 5.73247
18 *17:14 *17:20 0.318348
19 *17:19 *17:20 2.33553
20 *17:13 *17:19 0.318348
21 *17:12 *17:13 0.63928
22 *17:11 *17:12 1.57844
23 *299:I *17:11 1.0614
*END

*D_NET *18 0.00688656

*CONN
*I *212:I I *C -173.5 -55.4 *L 0.001 *D CKBD3
*I *300:I I *C -195.5 -92.385 *L 0.0897 *D PDDW16DGZ
*I *217:ZN O *C -171.7 -92.6 *L 0 *D INVD6

*CAP
1 *212:I 2.95664e-05
2 *300:I 0.000303007
3 *217:ZN 6.69453e-05
4 *18:4 0.000331469
5 *18:5 0.00057123
6 *18:6 0.000399739
7 *18:7 0.000557013
8 *18:8 5.43016e-05
9 *18:9 0.000112468
10 *18:10 0.000127376
11 *18:11 0.000118707
12 *18:12 0.000398387
13 *18:13 3.83728e-05
14 *18:14 3.27963e-05
15 *18:15 0.000141041
16 *18:16 0.00180918
17 *18:17 0.00179496

*RES
1 *300:I *18:4 6.15724
2 *18:4 *18:5 0.637055
3 *18:5 *18:7 11.0404
4 *18:6 *18:7 0.318241
5 *18:6 *18:12 7.64294
6 *18:10 *217:ZN 1.57859
7 *18:11 *18:12 1.57859
8 *18:10 *18:11 1.69843
9 *18:11 *18:13 0.21216
10 *18:13 *18:16 0.637055
11 *18:16 *18:17 37.5787697
12 *18:14 *18:17 0.318241
13 *18:15 *18:14 1.57859
14 *18:9 *18:15 1.91059
15 *18:8 *212:I 3.15718
16 *18:8 *18:9 1.57859
17 *18:3 *18:8 0.689235
*END

*D_NET *19 0.00034212

*CONN
*I *218:ZN O *C -172.5 -95.4 *L 0 *D INVD1
*I *217:I I *C -172.5 -93 *L 0.0057 *D INVD6

*CAP
1 *218:ZN 6.072e-05
2 *217:I 2.95803e-05
3 *19:2 5.47698e-05
4 *19:3 5.47698e-05
5 *19:4 5.13602e-05
6 *19:5 2.41499e-05
7 *19:6 3.40703e-05
8 *19:7 3.26999e-05

*RES
1 *19:7 *217:I 3.1572299
2 *19:6 *19:7 0.424619
3 *19:4 *218:ZN 1.57861
4 *19:3 *19:6 0.31844
5 *19:4 *19:5 0.212309
6 *19:2 *19:3 0.8492378
7 *19:2 *19:5 0.31844
*END

*D_NET *20 0.00544815

*CONN
*I *298:OEN I *C -195.5 -176.09 *L 0.0874 *D PDDW16DGZ
*I *298:REN I *C -195.5 -180.05 *L 0.0635 *D PDDW16DGZ
*I *219:Z O *C -170.7 -168.2 *L 0 *D BUFFD8

*CAP
1 *298:OEN 8.53801e-05
2 *298:REN 2.84472e-05
3 *219:Z 6.07156e-05
4 *20:3 9.78861e-05
5 *20:4 9.78861e-05
6 *20:5 0.000812481
7 *20:6 0.000797003
8 *20:7 0.00126478
9 *20:8 0.000469398
10 *20:9 0.000469398
11 *20:10 0.00126478

*RES
1 *20:8 *219:Z 1.57876
2 *20:8 *20:9 8.91689
3 *20:10 *20:9 1.57876
4 *20:7 *20:10 25.5722752
5 *20:6 *20:7 1.57876
6 *20:5 *20:6 15.9288
7 *298:OEN *20:5 1.27401
8 *298:OEN *20:4 0.63681
9 *20:3 *20:4 1.48628
10 *298:REN *20:3 0.63681
*END

*D_NET *21 0.00417494

*CONN
*I *298:I I *C -195.5 -162.385 *L 0.0897 *D PDDW16DGZ
*I *220:Z O *C -172.3 -161 *L 0 *D CKBD4
*I *219:I I *C -172.3 -168.6 *L 0.00285 *D BUFFD8

*CAP
1 *298:I 2.84477e-05
2 *220:Z 6.07106e-05
3 *219:I 2.33216e-05
4 *21:3 0.0012822
5 *21:4 0.00125363
6 *21:5 0.000136467
7 *21:6 0.000123475
8 *21:7 8.25061e-05
9 *21:8 0.000351116
10 *21:9 0.000555649
11 *21:10 0.000201775
12 *21:11 7.56192e-05

*RES
1 *21:7 *219:I 0.503172
2 *21:8 *21:7 1.57865
3 *21:11 *220:Z 1.57865
4 *21:8 *21:9 7.00628
5 *21:9 *21:11 0.636805
6 *21:9 *21:10 3.54644
7 *21:3 *21:10 1.57865
8 *21:4 *21:3 23.3540382
9 *21:5 *21:4 1.57865
10 *21:6 *21:5 2.27604
11 *298:I *21:6 0.636805
*END

*D_NET *22 0.0056411

*CONN
*I *299:REN I *C -195.5 -145.05 *L 0.0635 *D PDDW16DGZ
*I *221:Z O *C -173.3 -145.8 *L 0 *D CKBD3
*I *220:I I *C -173.5 -161.4 *L 0.00184 *D CKBD4

*CAP
1 *299:REN 3.12821e-05
2 *221:Z 2.70115e-05
3 *220:I 2.95738e-05
4 *22:3 0.000777425234
5 *22:4 0.000209627
6 *22:5 4.94321e-05
7 *22:6 3.38444e-05
8 *22:7 3.68457e-05
9 *22:8 4.55174e-05
10 *22:9 0.000774554
11 *22:10 0.000354174
12 *22:11 0.000326973
13 *22:12 4.97761e-05
14 *22:13 3.54815e-05
15 *22:14 7.69892e-05
16 *22:15 0.000253009
17 *22:16 0.000253009
18 *22:17 0.000364269
19 *22:18 0.000775931
20 *22:19 0.000362905
21 *22:20 0.000581903
22 *22:21 4.53157e-05
23 *22:22 7.37151e-05
24 *22:23 7.2517e-05

*RES
1 *221:Z *22:22 0.536359
2 *22:6 *220:I 3.15714
3 *22:23 *22:22 1.57857
4 *22:6 *22:5 0.424736
5 *22:21 *22:23 0.636867
6 *22:5 *22:4 0.636867
7 *22:20 *22:21 0.318552
8 *22:4 *22:3 4.47344
9 *22:3 *22:20 11.8893
10 *22:19 *22:3 1.57857
11 *22:17 *22:19 7.00624
12 *22:17 *22:18 0.318552
13 *22:9 *22:18 15.4985895
14 *22:10 *22:9 1.57857
15 *22:10 *22:11 6.36938
16 *22:11 *22:15 0.318552
17 *22:15 *22:16 4.67091
18 *22:12 *22:16 0.318552
19 *22:12 *22:14 0.639232
20 *22:13 *22:14 1.57857
21 *22:7 *22:13 0.424736
22 *22:7 *22:8 0.318552
23 *299:REN *22:8 0.636867
*END

*D_NET *23 0.00542295

*CONN
*I *299:OEN I *C -195.5 -141.09 *L 0.0874 *D PDDW16DGZ
*I *222:Z O *C -173.1 -142.2 *L 0 *D CKBD4
*I *221:I I *C -174.3 -145.4 *L 0.001 *D CKBD3

*CAP
1 *299:OEN 2.84552e-05
2 *222:Z 6.07211e-05
3 *221:I 2.95754e-05
4 *23:3 8.36453e-05
5 *23:4 9.78779e-05
6 *23:5 0.00065547
7 *23:6 0.000100938
8 *23:7 7.37335e-05
9 *23:8 4.39881e-05
10 *23:9 4.39881e-05
11 *23:10 0.000431489
12 *23:11 0.000431489
13 *23:12 0.000309787
14 *23:13 0.00065505
15 *23:14 0.000309787
16 *23:15 6.21614e-05
17 *23:16 6.25815e-05
18 *23:17 0.000209358
19 *23:18 0.000209358
20 *23:19 0.000180003
21 *23:20 0.000318878
22 *23:21 0.000180003
23 *23:22 0.000459214
24 *23:23 0.000252856
25 *23:24 0.000132544

*RES
1 *23:24 *222:Z 1.57862
2 *23:23 *23:24 1.91068
3 *23:22 *221:I 3.15724
4 *23:22 *23:23 3.39705
5 *23:20 *23:22 5.73226
6 *23:21 *23:20 1.57862
7 *23:19 *23:21 3.39705
8 *23:18 *23:19 1.57862
9 *23:17 *23:18 3.39705
10 *23:16 *23:17 1.57862
11 *23:15 *23:16 1.0097
12 *23:14 *23:15 0.405949
13 *23:12 *23:14 6.65394
14 *23:12 *23:13 0.405949
15 *23:5 *23:13 13.8347816
16 *23:6 *23:5 1.57862
17 *23:6 *23:7 1.27379
18 *23:7 *23:10 0.318553
19 *23:10 *23:11 8.91695
20 *23:8 *23:11 0.318553
21 *23:8 *23:9 0.636895
22 *23:3 *23:9 0.318553
23 *23:3 *23:4 1.48616
24 *299:OEN *23:4 0.636895
*END

*D_NET *24 0.0051586

*CONN
*I *300:OEN I *C -195.5 -106.09 *L 0.0874 *D PDDW16DGZ
*I *223:ZN O *C -173.7 -106 *L 0 *D INVD4

*CAP
1 *300:OEN 2.84552e-05
2 *223:ZN 6.07211e-05
3 *24:3 6.38117e-05
4 *24:4 7.80443e-05
5 *24:5 0.00065547
6 *24:6 0.000100938
7 *24:7 7.37335e-05
8 *24:8 4.39881e-05
9 *24:9 4.39881e-05
10 *24:10 0.000401754
11 *24:11 0.000401754
12 *24:12 0.000309787
13 *24:13 0.00065505
14 *24:14 0.000309787
15 *24:15 6.21614e-05
16 *24:16 6.25815e-05
17 *24:17 0.000650479
18 *24:18 0.000650479
19 *24:19 0.000225661
20 *24:20 5.42999e-05
21 *24:21 0.000225661

*RES
1 *300:OEN *24:4 0.636895
2 *24:3 *24:4 1.06163
3 *24:3 *24:9 0.318553
4 *24:8 *24:9 0.636895
5 *24:8 *24:11 0.318553
6 *24:10 *24:11 8.28005
7 *24:7 *24:10 0.318553
8 *24:6 *24:7 1.27379
9 *24:5 *24:6 1.57862
10 *24:5 *24:13 13.8347816
11 *24:12 *24:13 0.405949
12 *24:12 *24:14 6.65394
13 *24:14 *24:15 0.405949
14 *24:15 *24:16 1.0097
15 *24:17 *24:16 1.57862
16 *24:17 *24:18 12.7385
17 *24:19 *24:18 1.57862
18 *24:19 *24:21 4.03395
19 *24:20 *24:21 1.57862
20 *24:20 *223:ZN 1.57862
21 *24:2 *24:20 0.0795855
*END

*D_NET *25 0.00580538

*CONN
*I *218:I I *C -172.9 -95 *L 0.00107 *D INVD1
*I *216:I I *C -174.1 -109.4 *L 0.00285 *D BUFFD8
*I *224:ZN O *C -173.9 -107 *L 0 *D INVD1
*I *222:I I *C -174.3 -141.8 *L 0.00184 *D CKBD4

*CAP
1 *218:I 6.07088e-05
2 *216:I 6.69596e-05
3 *224:ZN 0.000133822
4 *222:I 2.95761e-05
5 *25:4 8.05559e-05
6 *25:5 2.82383e-05
7 *25:6 0.00159397
8 *25:7 0.00159397
9 *25:8 3.40514e-05
10 *25:9 7.52779e-05
11 *25:10 4.80611e-05
12 *25:11 4.80611e-05
13 *25:12 3.54864e-05
14 *25:13 7.52779e-05
15 *25:14 0.000122828
16 *25:15 0.000151407
17 *25:16 3.40514e-05
18 *25:17 6.40653e-05
19 *25:18 6.51354e-05
20 *25:19 2.41522e-05
21 *25:20 5.70847e-05
22 *25:21 8.24287e-05
23 *25:22 0.000650114
24 *25:23 0.000650114

*RES
1 *25:23 *218:I 1.5788
2 *25:22 *25:23 12.7384
3 *25:21 *25:22 1.5788
4 *224:ZN *25:21 1.34064
5 *25:20 *224:ZN 1.5788
6 *25:19 *25:20 0.212322
7 *25:18 *25:19 0.318484
8 *25:4 *216:I 1.5788
9 *25:4 *25:18 1.06161
10 *25:14 *222:I 3.15712
11 *25:5 *25:4 0.2701
12 *25:14 *25:15 2.33555
13 *25:17 *25:5 1.5788
14 *25:16 *25:15 1.5788
15 *25:12 *25:17 0.424645
16 *25:8 *25:16 0.424645
17 *25:13 *25:12 1.5788
18 *25:9 *25:8 1.5788
19 *25:11 *25:13 0.639316
20 *25:9 *25:10 0.639316
21 *25:7 *25:11 0.318484
22 *25:6 *25:10 0.318484
23 *25:6 *25:7 30.7848682
*END

*D_NET *26 0.000702433

*CONN
*I *225:ZN O *C -173.3 -110.6 *L 0 *D INVD1
*I *224:I I *C -174.3 -107.4 *L 0.00107 *D INVD1
*I *223:I I *C -174.3 -105.8 *L 0.00394 *D INVD4

*CAP
1 *225:ZN 6.072e-05
2 *224:I 2.95796e-05
3 *223:I 2.95796e-05
4 *26:3 0.00016531
5 *26:4 0.00018977
6 *26:5 9.41799e-05
7 *26:6 5.17897e-05
8 *26:7 8.14996e-05

*RES
1 *26:5 *223:I 3.15721
2 *26:6 *225:ZN 1.5786
3 *26:4 *224:I 3.15721
4 *26:4 *26:5 1.69845
5 *26:6 *26:7 0.212337
6 *26:3 *26:4 4.09286356
7 *26:3 *26:7 1.59234
*END

*D_NET *27 0.00443094

*CONN
*I *302:REN I *C -195.5 -5.05 *L 0.0635 *D PDDW16DGZ
*I *226:Z O *C -173.3 -5.4 *L 0 *D CKBD3
*I *215:I I *C -174.3 -23 *L 0.00107 *D INVD1

*CAP
1 *302:REN 0.000789423
2 *226:Z 6.07204e-05
3 *215:I 2.95851e-05
4 *27:3 0.00094949
5 *27:4 0.000883322
6 *27:5 0.000338113
7 *27:6 0.000803651
8 *27:7 0.000336737
9 *27:8 0.000121615
10 *27:9 0.000118311

*RES
1 *27:9 *226:Z 1.57873
2 *27:4 *215:I 3.1572
3 *27:8 *27:9 1.59228
4 *27:4 *27:3 17.4093742
5 *27:3 *27:8 1.06152
6 *27:7 *27:3 1.57873
7 *27:5 *27:7 6.58164
8 *27:5 *27:6 0.31851
9 *302:REN *27:6 15.4986
*END

*D_NET *28 0.00539027

*CONN
*I *302:OEN I *C -195.5 -1.09 *L 0.0874 *D PDDW16DGZ
*I *227:Z O *C -173.1 -1.8 *L 0 *D CKBD4
*I *226:I I *C -174.3 -5 *L 0.001 *D CKBD3

*CAP
1 *302:OEN 4.26878e-05
2 *227:Z 6.07211e-05
3 *226:I 2.95754e-05
4 *28:3 0.00065547
5 *28:4 7.23032e-05
6 *28:5 4.50883e-05
7 *28:6 3.40662e-05
8 *28:7 6.25314e-05
9 *28:8 0.000520745
10 *28:9 0.000520745
11 *28:10 0.000449812
12 *28:11 0.00065505
13 *28:12 0.000449812
14 *28:13 5.04092e-05
15 *28:14 5.04092e-05
16 *28:15 3.69468e-05
17 *28:16 0.000465175
18 *28:17 0.000509123
19 *28:18 2.27842e-05
20 *28:19 0.000180683
21 *28:20 6.13912e-05
22 *28:21 0.000242944
23 *28:22 0.000171791

*RES
1 *28:20 *227:Z 1.57862
2 *28:20 *28:22 0.318553
3 *28:18 *226:I 3.15724
4 *28:21 *28:22 3.18468
5 *28:18 *28:19 0.212369
6 *28:19 *28:21 1.91068
7 *28:17 *28:19 1.91068
8 *28:16 *28:17 9.53506
9 *28:15 *28:16 1.57862
10 *28:14 *28:15 0.405949
11 *28:13 *28:14 0.757223
12 *28:12 *28:13 0.405949
13 *28:10 *28:12 9.6729
14 *28:10 *28:11 0.405949
15 *28:3 *28:11 13.8347816
16 *28:4 *28:3 1.57862
17 *28:4 *28:5 0.636895
18 *28:5 *28:8 0.318553
19 *28:8 *28:9 10.8278
20 *28:6 *28:9 0.318553
21 *28:6 *28:7 0.424526
22 *302:OEN *28:7 0.955448
*END

*D_NET *29 0.00433102

*CONN
*I *302:I I *C -195.5 12.615 *L 0.0897 *D PDDW16DGZ
*I *228:Z O *C -173.1 12.6 *L 0 *D CKBD4
*I *227:I I *C -174.3 -1.4 *L 0.00184 *D CKBD4

*CAP
1 *302:I 2.08435e-05
2 *228:Z 6.07238e-05
3 *227:I 2.95757e-05
4 *29:4 6.35341e-05
5 *29:5 0.00109629
6 *29:6 0.000342127
7 *29:7 0.000407234
8 *29:8 9.24574e-05
9 *29:9 9.21897e-05
10 *29:10 6.12758e-05
11 *29:11 0.00109629
12 *29:12 0.000410178
13 *29:13 0.00041155
14 *29:14 5.43001e-05
15 *29:15 9.24574e-05

*RES
1 *302:I *29:4 0.424703
2 *29:4 *29:5 0.955418
3 *29:12 *227:I 3.15713
4 *29:5 *29:11 21.4432526
5 *29:12 *29:13 8.28007
6 *29:10 *29:11 0.955418
7 *29:6 *29:13 0.318364
8 *29:9 *29:10 1.57873
9 *29:6 *29:7 6.79394
10 *29:7 *29:9 1.11476
11 *29:8 *29:7 1.57873
12 *29:8 *29:15 1.48613
13 *29:14 *29:15 1.57873
14 *29:14 *228:Z 1.57873
15 *29:3 *29:14 0.374642
*END

*D_NET *30 0.00293692

*CONN
*I *303:I I *C -195.5 47.615 *L 0.0897 *D PDDW16DGZ
*I *229:ZN O *C -173.1 48.8 *L 0 *D INVD4

*CAP
1 *303:I 2.84528e-05
2 *229:ZN 6.07171e-05
3 *30:2 0.000112358
4 *30:3 0.000125334
5 *30:4 0.00116178
6 *30:5 2.56873e-05
7 *30:6 5.28992e-05
8 *30:7 0.00116178
9 *30:8 0.00011757
10 *30:9 9.03577e-05

*RES
1 *30:8 *229:ZN 1.57858
2 *30:8 *30:9 1.34945
3 *30:5 *30:9 0.318558
4 *30:5 *30:6 0.213181
5 *30:7 *30:6 1.57858
6 *30:4 *30:7 22.7171097
7 *30:3 *30:4 1.57858
8 *30:2 *30:3 1.69851
9 *303:I *30:2 0.63677
*END

*D_NET *31 0.00862206

*CONN
*I *304:OEN I *C -195.5 103.91 *L 0.0874 *D PDDW16DGZ
*I *304:REN I *C -195.5 99.95 *L 0.0635 *D PDDW16DGZ
*I *230:ZN O *C -173.3 47.8 *L 0 *D CKND8

*CAP
1 *304:OEN 2.84446e-05
2 *304:REN 8.5374e-05
3 *230:ZN 6.07353e-05
4 *31:3 0.000296706
5 *31:4 0.000269503
6 *31:5 9.78736e-05
7 *31:6 9.78736e-05
8 *31:7 0.00119431
9 *31:8 0.00261006
10 *31:9 0.00262552
11 *31:10 6.13763e-05
12 *31:11 0.00119431

*RES
1 *31:10 *230:ZN 1.57834
2 *31:10 *31:4 0.318535
3 *31:4 *31:3 5.03618
4 *31:11 *31:3 1.57834
5 *304:OEN *31:6 0.637071
6 *31:7 *31:11 22.7172
7 *31:5 *31:6 1.48625
8 *31:8 *31:7 1.57834
9 *304:REN *31:5 0.637071
10 *31:8 *31:9 49.4680977
11 *304:REN *31:9 1.27414
*END

*D_NET *32 0.00556569

*CONN
*I *303:OEN I *C -195.5 33.91 *L 0.0874 *D PDDW16DGZ
*I *303:REN I *C -195.5 29.95 *L 0.0635 *D PDDW16DGZ
*I *231:ZN O *C -173.3 33.4 *L 0 *D CKND8
*I *228:I I *C -174.3 13 *L 0.00184 *D CKBD4

*CAP
1 *303:OEN 2.84661e-05
2 *303:REN 0.00122002
3 *231:ZN 6.0714e-05
4 *228:I 2.95762e-05
5 *32:4 0.000157683
6 *32:5 0.000129104
7 *32:8 0.000101861
8 *32:9 0.000101861
9 *32:10 8.08266e-05
10 *32:11 5.42983e-05
11 *32:12 2.32734e-05
12 *32:13 0.000109406
13 *32:14 0.000860419
14 *32:15 0.001233
15 *32:16 0.00108617
16 *32:17 5.18524e-05
17 *32:18 0.000237174

*RES
1 *303:OEN *32:9 0.636841
2 *32:5 *228:I 3.15723
3 *32:8 *32:9 1.4862
4 *32:5 *32:4 2.33844
5 *303:REN *32:8 0.636841
6 *32:10 *32:4 1.57862
7 *32:10 *32:13 1.27368
8 *303:REN *32:15 23.5663471
9 *32:14 *32:13 1.57862
10 *32:16 *32:15 1.57862
11 *32:14 *32:16 14.8088
12 *32:16 *32:18 3.91993
13 *32:17 *32:18 1.57862
14 *32:7 *32:12 0.374697
15 *32:12 *32:17 0.21216
16 *32:11 *32:12 1.57862
17 *32:11 *231:ZN 1.57862
18 *32:6 *32:11 0.374697
*END

*D_NET *33 0.00213261

*CONN
*I *232:ZN O *C -173.9 34.2 *L 0 *D INVD1
*I *231:I I *C -174.3 33.2 *L 0.00734 *D CKND8
*I *230:I I *C -174.3 47.6 *L 0.00734 *D CKND8
*I *229:I I *C -173.7 49 *L 0.00394 *D INVD4

*CAP
1 *232:ZN 6.07229e-05
2 *231:I 6.69523e-05
3 *230:I 6.69523e-05
4 *229:I 2.33163e-05
5 *33:4 6.90458e-05
6 *33:5 6.90458e-05
7 *33:6 9.76165e-05
8 *33:7 9.31523e-05
9 *33:8 0.000622028
10 *33:9 0.00067255
11 *33:10 6.46945e-05
12 *33:11 3.40714e-05
13 *33:12 7.0031e-05
14 *33:13 3.26962e-05
15 *33:14 3.83816e-05
16 *33:15 5.13636e-05

*RES
1 *33:12 *229:I 0.503043
2 *33:13 *33:12 1.57852
3 *33:11 *33:13 0.42471
4 *33:10 *33:11 0.318386
5 *33:9 *230:I 1.57852
6 *33:9 *33:10 1.06148
7 *33:15 *232:ZN 1.57852
8 *33:8 *33:9 12.7385664
9 *33:6 *231:I 1.57852
10 *33:14 *33:15 0.212258
11 *33:4 *33:8 0.318386
12 *33:6 *33:7 1.06148
13 *33:7 *33:14 0.636967
14 *33:5 *33:4 1.81566
15 *33:5 *33:7 0.318386
*END

*D_NET *34 0.00491735

*CONN
*I *306:OEN I *C -178.78 195.5 *L 0.0874 *D PDDW16DGZ
*I *233:ZN O *C -173.7 173.6 *L 0 *D INVD4

*CAP
1 *306:OEN 4.79723e-05
2 *233:ZN 6.07149e-05
3 *34:2 9.15913e-05
4 *34:3 6.29924e-05
5 *34:7 0.000179954
6 *34:8 0.000144003
7 *34:9 7.79838e-05
8 *34:10 5.42859e-05
9 *34:11 8.94867e-05
10 *34:12 0.00188934
11 *34:13 0.000136623
12 *34:14 0.00188934
13 *34:15 5.42859e-05
14 *34:16 5.42859e-05
15 *34:17 5.42859e-05
16 *34:18 3.02133e-05

*RES
1 *34:7 *306:OEN 1.27386
2 *34:7 *34:8 2.97233224
3 *34:8 *34:9 0.318477
4 *34:9 *34:13 1.48617
5 *34:14 *34:13 0.207586
6 *34:12 *34:14 1.36729
7 *34:11 *34:12 0.207586
8 *34:11 *34:18 0.424606
9 *34:17 *34:18 1.5786
10 *34:16 *34:17 1.5786
11 *34:6 *34:16 0.689293
12 *34:15 *34:16 1.5786
13 *34:5 *34:15 0.689293
14 *34:2 *34:15 1.5786
15 *34:3 *34:2 0.852341
16 *34:10 *34:3 1.5786
17 *34:10 *233:ZN 1.5786
18 *34:4 *34:10 0.689293
*END

*D_NET *35 0.00308314

*CONN
*I *306:I I *C -165.075 195.5 *L 0.0897 *D PDDW16DGZ
*I *234:ZN O *C -168.5 173.6 *L 0 *D INVD4

*CAP
1 *306:I 2.97575e-05
2 *234:ZN 6.07203e-05
3 *35:3 5.43037e-05
4 *35:4 0.000321103
5 *35:5 0.000100918
6 *35:6 0.00108276
7 *35:7 0.000321103
8 *35:8 0.00111247

*RES
1 *35:5 *306:I 0.636773
2 *35:5 *35:8 1.59227
3 *35:6 *35:8 22.2924919
4 *35:7 *35:6 1.57867
5 *35:4 *35:7 5.94457
6 *35:3 *35:4 1.57867
7 *35:3 *234:ZN 1.57867
8 *35:2 *35:3 0.689157
*END

*D_NET *36 0.00388226

*CONN
*I *306:REN I *C -182.74 195.5 *L 0.0635 *D PDDW16DGZ
*I *235:ZN O *C -170.7 173.8 *L 0 *D INVD3

*CAP
1 *306:REN 0.000125094
2 *235:ZN 6.69526e-05
3 *36:2 0.000725491
4 *36:3 0.00099046
5 *36:4 0.000951513
6 *36:5 0.000127588
7 *36:6 8.77033e-05
8 *36:7 8.19754e-05
9 *36:8 0.000725491

*RES
1 *36:5 *306:REN 2.54768
2 *36:6 *235:ZN 1.57867
3 *36:4 *36:5 0.0557176
4 *36:6 *36:7 0.849325
5 *36:3 *36:4 19.3201599
6 *36:8 *36:7 1.57867
7 *36:2 *36:3 1.57867
8 *36:2 *36:8 14.2248
*END

*D_NET *37 0.00569464

*CONN
*I *305:REN I *C -195.5 134.95 *L 0.0635 *D PDDW16DGZ
*I *304:I I *C -195.5 117.615 *L 0.0897 *D PDDW16DGZ
*I *236:Z O *C -170.7 137.8 *L 0 *D BUFFD8

*CAP
1 *305:REN 4.26901e-05
2 *304:I 4.26901e-05
3 *236:Z 6.07209e-05
4 *37:3 0.000365871
5 *37:4 0.0012665
6 *37:5 0.000383032
7 *37:6 4.55117e-05
8 *37:7 3.50759e-05
9 *37:8 6.35231e-05
10 *37:9 0.00042151
11 *37:10 0.00042151
12 *37:11 0.000639753
13 *37:12 0.0012665
14 *37:13 0.000639753

*RES
1 *305:REN *37:8 0.955295
2 *37:7 *37:8 0.424447
3 *37:13 *236:Z 1.57867
4 *37:7 *37:10 0.318432
5 *37:11 *37:13 12.5264
6 *37:9 *37:10 8.28
7 *37:12 *37:11 1.57867
8 *37:6 *37:9 0.318432
9 *37:4 *37:12 25.2648239
10 *37:5 *37:6 0.636864
11 *37:5 *37:4 1.57867
12 *37:3 *37:5 6.58144
13 *304:I *37:3 0.955295
*END

*D_NET *38 0.000863271

*CONN
*I *237:ZN O *C -171.9 173.8 *L 0 *D INVD1
*I *235:I I *C -171.1 173.4 *L 0.00302 *D INVD3
*I *234:I I *C -169.1 173.4 *L 0.00394 *D INVD4
*I *233:I I *C -174.3 173.4 *L 0.00394 *D INVD4

*CAP
1 *237:ZN 6.22473e-05
2 *235:I 4.66815e-05
3 *234:I 2.95778e-05
4 *233:I 2.95778e-05
5 *38:7 5.42995e-05
6 *38:8 0.000107041
7 *38:9 5.42995e-05
8 *38:10 0.00026043
9 *38:11 5.42995e-05
10 *38:12 0.000164822

*RES
1 *38:11 *234:I 3.1572299
2 *38:6 *38:11 0.689295
3 *237:ZN *235:I 1.00615
4 *38:12 *38:11 1.57861
5 *38:5 *38:9 0.689295
6 *38:9 *237:ZN 1.57861
7 *38:10 *38:12 2.97233224
8 *38:10 *38:9 1.57861
9 *38:8 *38:10 2.91394
10 *38:7 *233:I 3.1572299
11 *38:7 *38:8 1.57861
12 *38:4 *38:7 0.689295
*END

*D_NET *39 0.00577059

*CONN
*I *305:OEN I *C -195.5 138.91 *L 0.0874 *D PDDW16DGZ
*I *238:Z O *C -172.3 138.6 *L 0 *D CKBD4
*I *236:I I *C -172.3 137.4 *L 0.00285 *D BUFFD8

*CAP
1 *305:OEN 4.2683e-05
2 *238:Z 6.07135e-05
3 *236:I 6.69538e-05
4 *39:3 0.000126111
5 *39:4 6.80843e-05
6 *39:5 5.25205e-05
7 *39:6 5.3886e-05
8 *39:7 3.40642e-05
9 *39:8 6.25342e-05
10 *39:9 0.000570326
11 *39:10 0.000570326
12 *39:11 0.00096224
13 *39:12 0.000126111
14 *39:13 0.00096224
15 *39:14 5.04062e-05
16 *39:15 5.04062e-05
17 *39:16 3.69567e-05
18 *39:17 0.000659583
19 *39:18 0.000659583
20 *39:19 0.000175607
21 *39:20 0.000101826
22 *39:21 0.000175607
23 *39:22 0.000101826

*RES
1 *39:22 *238:Z 1.57858
2 *39:20 *236:I 1.57858
3 *39:20 *39:22 1.27395
4 *39:21 *39:20 1.57858
5 *39:19 *39:21 3.18471
6 *39:18 *39:19 1.57858
7 *39:17 *39:18 12.9509
8 *39:16 *39:17 1.57858
9 *39:15 *39:16 0.405857
10 *39:14 *39:15 0.757257
11 *39:13 *39:14 0.405857
12 *39:11 *39:13 20.9930725
13 *39:11 *39:12 0.405857
14 *39:3 *39:12 2.51554
15 *39:3 *39:4 0.405857
16 *39:5 *39:4 1.57858
17 *39:5 *39:6 0.849192
18 *39:6 *39:9 0.318407
19 *39:9 *39:10 11.8893
20 *39:7 *39:10 0.318407
21 *39:7 *39:8 0.424756
22 *305:OEN *39:8 0.955541
*END

*D_NET *40 0.00508317

*CONN
*I *323:OEN I *C -195.5 173.91 *L 0.0874 *D PDDW16DGZ
*I *239:ZN O *C -173.7 171.2 *L 0 *D INVD4

*CAP
1 *323:OEN 4.2684e-05
2 *239:ZN 6.07172e-05
3 *40:2 0.000535787
4 *40:3 0.000535787
5 *40:5 0.000126115
6 *40:6 6.80831e-05
7 *40:7 9.31594e-05
8 *40:8 9.4524e-05
9 *40:9 6.38132e-05
10 *40:10 9.22643e-05
11 *40:11 0.000461248
12 *40:12 0.000461248
13 *40:13 0.0009616
14 *40:14 0.000126115
15 *40:15 0.0009616
16 *40:16 5.04167e-05
17 *40:17 5.04167e-05
18 *40:18 3.69468e-05
19 *40:19 0.000103181
20 *40:20 5.43051e-05
21 *40:21 0.000103181

*RES
1 *323:OEN *40:10 0.955541
2 *40:9 *40:10 1.06157
3 *40:9 *40:12 0.318407
4 *40:11 *40:12 9.55381
5 *40:8 *40:11 0.318407
6 *40:7 *40:8 1.62919
7 *40:6 *40:7 1.57858
8 *40:5 *40:6 0.405857
9 *40:5 *40:14 2.51554
10 *40:13 *40:14 0.405857
11 *40:13 *40:15 20.9930725
12 *40:15 *40:16 0.405857
13 *40:16 *40:17 0.757257
14 *40:17 *40:18 0.405857
15 *40:3 *40:18 1.57858
16 *40:3 *40:2 11.2365
17 *40:19 *40:2 1.57858
18 *40:19 *40:21 1.69838
19 *40:20 *40:21 1.57858
20 *40:20 *239:ZN 1.57858
21 *40:4 *40:20 0.0797619
*END

*D_NET *41 0.0045035

*CONN
*I *323:I I *C -195.5 187.615 *L 0.0897 *D PDDW16DGZ
*I *240:ZN O *C -172.1 171 *L 0 *D INVD6
*I *237:I I *C -172.3 173.4 *L 0.00107 *D INVD1

*CAP
1 *323:I 0.00124277
2 *240:ZN 6.69503e-05
3 *237:I 2.33213e-05
4 *41:3 0.000112998
5 *41:4 7.00215e-05
6 *41:5 0.000820084
7 *41:6 3.69494e-05
8 *41:7 0.000776935
9 *41:8 0.00125791
10 *41:9 9.55693e-05

*RES
1 *41:9 *240:ZN 1.57852
2 *41:4 *237:I 0.50296
3 *41:3 *41:9 0.955194
4 *41:5 *41:4 1.57852
5 *41:3 *41:5 1.4861
6 *41:5 *41:7 15.7108
7 *41:6 *41:7 1.57852
8 *41:6 *41:8 0.405807
9 *323:I *41:8 28.1726475
*END

*D_NET *42 0.00238466

*CONN
*I *323:REN I *C -195.5 169.95 *L 0.0635 *D PDDW16DGZ
*I *241:ZN O *C -173.9 170.2 *L 0 *D INVD3

*CAP
1 *323:REN 0.000813823
2 *241:ZN 6.69541e-05
3 *42:3 0.00082805
4 *42:4 0.000311446
5 *42:5 5.43062e-05
6 *42:6 0.000310081

*RES
1 *323:REN *42:3 16.5601349
2 *42:3 *42:4 0.318386
3 *42:4 *42:6 5.94473
4 *42:5 *42:6 1.57854
5 *42:5 *241:ZN 1.57854
6 *42:2 *42:5 0.689332
*END

*D_NET *43 0.0046002

*CONN
*I *305:I I *C -195.5 152.615 *L 0.0897 *D PDDW16DGZ
*I *242:ZN O *C -173.1 155.8 *L 0 *D INVD6
*I *238:I I *C -173.5 139 *L 0.00184 *D CKBD4

*CAP
1 *305:I 2.84581e-05
2 *242:ZN 6.69537e-05
3 *238:I 2.95734e-05
4 *43:3 0.000107791
5 *43:4 0.000120784
6 *43:5 0.00121816
7 *43:6 0.000132736
8 *43:7 0.000148332
9 *43:8 0.000104371
10 *43:9 0.000134186
11 *43:10 7.11918e-05
12 *43:11 0.00121816
13 *43:12 0.000616859
14 *43:13 0.000602639

*RES
1 *43:6 *238:I 3.15727
2 *43:6 *43:7 2.54779
3 *43:7 *43:12 0.636773
4 *43:12 *43:13 12.3139
5 *43:8 *43:13 0.318386
6 *43:8 *43:9 1.91067
7 *43:9 *242:ZN 1.57864
8 *43:9 *43:10 0.636773
9 *43:11 *43:10 1.57864
10 *43:5 *43:11 22.9294186
11 *43:4 *43:5 1.57864
12 *43:3 *43:4 1.69864
13 *305:I *43:3 0.636773
*END

*D_NET *44 0.00234404

*CONN
*I *243:ZN O *C -173.9 156.6 *L 0 *D INVD1
*I *242:I I *C -173.9 155.4 *L 0.0057 *D INVD6
*I *241:I I *C -174.3 169.8 *L 0.00302 *D INVD3
*I *240:I I *C -172.9 171.4 *L 0.0057 *D INVD6
*I *239:I I *C -174.3 171.4 *L 0.00394 *D INVD4

*CAP
1 *243:ZN 6.07146e-05
2 *242:I 2.33251e-05
3 *241:I 2.9582e-05
4 *240:I 2.9582e-05
5 *239:I 2.9582e-05
6 *44:5 4.55115e-05
7 *44:6 4.55115e-05
8 *44:7 8.2489e-05
9 *44:8 7.63188e-05
10 *44:9 0.00010615
11 *44:10 0.00064909
12 *44:11 0.00071065
13 *44:12 0.000180951
14 *44:13 3.26941e-05
15 *44:14 3.83763e-05
16 *44:15 5.13564e-05
17 *44:16 0.000119445
18 *44:17 3.26941e-05

*RES
1 *44:17 *240:I 3.15729
2 *44:16 *44:17 0.424674
3 *44:13 *239:I 3.15729
4 *44:12 *44:16 2.22929
5 *44:12 *44:13 0.424674
6 *44:11 *241:I 3.15729
7 *44:11 *44:12 1.27382
8 *44:7 *242:I 0.503127
9 *44:15 *243:ZN 1.57855
10 *44:10 *44:11 12.9508753
11 *44:8 *44:7 1.57855
12 *44:14 *44:15 0.212238
13 *44:5 *44:10 0.318555
14 *44:8 *44:9 1.27382
15 *44:9 *44:14 0.636912
16 *44:6 *44:5 1.23904
17 *44:6 *44:9 0.318555
*END

*D_NET *45 0.00415032

*CONN
*I *307:I I *C -132.765 195.5 *L 0.0897 *D PDDW16DGZ
*I *244:ZN O *C -117.3 173.8 *L 0 *D INVD6

*CAP
1 *307:I 4.95854e-05
2 *244:ZN 6.69437e-05
3 *45:2 0.000814794
4 *45:3 6.8094e-05
5 *45:4 9.10153e-05
6 *45:5 0.0011252
7 *45:6 0.000815206
8 *45:7 0.00111948

*RES
1 *45:5 *244:ZN 1.57873
2 *45:4 *307:I 1.06143
3 *45:5 *45:7 21.4432526
4 *45:3 *45:4 1.57873
5 *45:6 *45:7 1.57873
6 *45:2 *45:3 0.406053
7 *45:2 *45:6 18.1111
*END

*D_NET *46 0.0056121

*CONN
*I *209:I I *C -140.9 173.4 *L 0.00184 *D CKBD4
*I *307:OEN I *C -146.47 195.5 *L 0.0874 *D PDDW16DGZ
*I *307:REN I *C -150.43 195.5 *L 0.0635 *D PDDW16DGZ
*I *245:ZN O *C -131.7 173.8 *L 0 *D CKND8

*CAP
1 *209:I 2.95815e-05
2 *307:OEN 0.00018153
3 *307:REN 4.26933e-05
4 *245:ZN 6.07184e-05
5 *46:4 0.000165903
6 *46:5 0.00013731
7 *46:6 0.000115666
8 *46:7 0.000115666
9 *46:8 0.000781576
10 *46:9 0.00018028
11 *46:10 0.00053001
12 *46:11 0.000151396
13 *46:12 0.00053001
14 *46:13 0.00095264
15 *46:14 0.000781576
16 *46:15 0.000855537

*RES
1 *46:5 *209:I 3.1572
2 *46:5 *46:4 2.86234
3 *46:10 *46:4 1.57873
4 *46:10 *46:12 11.571
5 *46:11 *245:ZN 1.57873
6 *46:13 *46:12 1.57873
7 *46:11 *46:13 2.33529
8 *46:13 *46:15 17.4093742
9 *46:14 *46:15 1.57873
10 *46:8 *46:14 17.356245
11 *46:9 *46:8 1.57873
12 *46:9 *307:OEN 2.97231
13 *46:7 *307:OEN 0.955263
14 *46:6 *307:REN 0.955263
15 *46:6 *46:7 1.48629
*END

*D_NET *47 0.0103192

*CONN
*I *210:I I *C -57.1 173.4 *L 0.00184 *D CKBD4
*I *308:REN I *C -118.12 195.5 *L 0.0635 *D PDDW16DGZ
*I *246:ZN O *C -110.5 173.6 *L 0 *D INVD4

*CAP
1 *210:I 9.33462e-05
2 *308:REN 4.79327e-05
3 *246:ZN 6.07304e-05
4 *47:3 0.000242149
5 *47:4 0.000242149
6 *47:5 8.28997e-05
7 *47:6 8.28997e-05
8 *47:7 0.00219993
9 *47:8 0.00220131
10 *47:9 0.000192167
11 *47:10 0.000219375
12 *47:11 0.000160492
13 *47:12 0.000160492
14 *47:16 0.000264822
15 *47:17 0.000228848
16 *47:18 7.79956e-05
17 *47:19 0.000177757
18 *47:20 0.000874747
19 *47:21 0.00013661
20 *47:22 0.00102043
21 *47:23 5.42812e-05
22 *47:24 0.000573681
23 *47:25 0.000573681
24 *47:26 5.42812e-05
25 *47:27 5.42812e-05
26 *47:28 3.02309e-05
27 *47:29 5.13589e-05
28 *47:30 0.000108932
29 *47:31 5.13589e-05

*RES
1 *47:16 *308:REN 1.27405
2 *47:30 *210:I 2.01252
3 *47:16 *47:17 4.88324
4 *47:31 *47:30 1.57839
5 *47:17 *47:18 0.318198
6 *47:15 *47:29 0.374907
7 *47:29 *47:31 0.212342
8 *47:18 *47:21 1.48639
9 *47:7 *47:29 1.57839
10 *47:22 *47:21 0.207301
11 *47:8 *47:7 41.2939148
12 *47:20 *47:22 0.66412
13 *47:8 *47:5 0.318198
14 *47:19 *47:20 0.207301
15 *47:6 *47:5 2.47816
16 *47:19 *47:28 0.424684
17 *47:3 *47:6 0.318198
18 *47:27 *47:28 1.57839
19 *47:4 *47:3 5.01115
20 *47:26 *47:27 1.57839
21 *47:14 *47:26 0.689324
22 *47:11 *47:4 0.318198
23 *47:25 *47:26 1.57839
24 *47:12 *47:11 3.07486
25 *47:24 *47:25 12.2995
26 *47:12 *47:9 0.318198
27 *47:10 *47:24 1.57839
28 *47:10 *47:9 4.42516
29 *47:23 *47:10 1.57839
30 *47:23 *246:ZN 1.57839
31 *47:13 *47:23 0.079392
*END

*D_NET *48 0.00468665

*CONN
*I *309:I I *C -35.84 195.5 *L 0.0897 *D PDDW16DGZ
*I *310:REN I *C -21.2 195.5 *L 0.0635 *D PDDW16DGZ
*I *247:ZN O *C -42.1 173.8 *L 0 *D CKND8

*CAP
1 *309:I 8.81421e-05
2 *310:REN 4.54483e-05
3 *247:ZN 6.07213e-05
4 *48:5 5.42943e-05
5 *48:6 5.42943e-05
6 *48:7 0.00112854
7 *48:8 5.45591e-05
8 *48:9 0.00115713
9 *48:10 0.000201869
10 *48:11 5.59363e-05
11 *48:12 0.000201869
12 *48:13 3.50661e-05
13 *48:14 6.35287e-05
14 *48:15 0.000212992
15 *48:16 0.000492286
16 *48:17 0.000182694
17 *48:18 0.000492286
18 *48:19 3.73439e-05
19 *48:20 6.76427e-05

*RES
1 *48:20 *310:REN 1.21762
2 *48:19 *48:20 0.503017
3 *48:18 *48:19 0.405985
4 *48:16 *48:18 10.8164
5 *48:16 *48:17 0.405985
6 *48:15 *48:17 3.77313
7 *48:15 *309:I 1.21762
8 *48:14 *309:I 0.955496
9 *48:13 *48:14 0.424515
10 *48:12 *48:13 0.318386
11 *48:10 *48:12 3.82165
12 *48:10 *48:11 0.318386
13 *48:8 *48:11 0.849367
14 *48:9 *48:8 1.57846
15 *48:7 *48:9 22.0801811
16 *48:6 *48:7 1.57846
17 *48:4 *48:6 0.689332
18 *48:5 *48:6 1.57846
19 *48:5 *247:ZN 1.57846
20 *48:3 *48:5 0.689332
*END

*D_NET *49 0.00401992

*CONN
*I *309:REN I *C -53.505 195.5 *L 0.0635 *D PDDW16DGZ
*I *248:ZN O *C -49.7 173.8 *L 0 *D INVD3

*CAP
1 *309:REN 4.54539e-05
2 *248:ZN 3.50049e-05
3 *49:2 0.000536671
4 *49:3 6.80958e-05
5 *49:4 0.000162364
6 *49:5 3.69473e-05
7 *49:6 0.000190946
8 *49:7 4.84313e-05
9 *49:8 0.000148314
10 *49:9 4.84313e-05
11 *49:10 0.000148314
12 *49:11 3.73442e-05
13 *49:12 6.76563e-05
14 *49:13 5.05721e-05
15 *49:14 0.00092914
16 *49:15 0.000537096
17 *49:16 0.00092914

*RES
1 *49:12 *309:REN 1.21759
2 *49:11 *49:12 0.503124
3 *49:10 *49:11 0.405959
4 *49:8 *49:10 3.01845
5 *49:8 *49:9 0.405959
6 *49:7 *49:9 0.754541
7 *49:5 *49:7 0.405959
8 *248:ZN *49:13 0.754541
9 *49:6 *49:5 1.57857
10 *49:14 *49:13 1.57857
11 *49:4 *49:6 3.18453
12 *49:14 *49:16 18.8955402
13 *49:3 *49:4 1.57857
14 *49:15 *49:16 1.57857
15 *49:2 *49:3 0.405959
16 *49:2 *49:15 11.8224
*END

*D_NET *50 0.00270954

*CONN
*I *308:I I *C -100.455 195.5 *L 0.0897 *D PDDW16DGZ
*I *249:ZN O *C -99.7 173.8 *L 0 *D INVD6

*CAP
1 *308:I 2.97602e-05
2 *249:ZN 6.69516e-05
3 *50:3 5.43044e-05
4 *50:4 7.29894e-05
5 *50:5 0.000129366
6 *50:6 0.00111251
7 *50:7 7.29894e-05
8 *50:8 0.00117067

*RES
1 *50:5 *308:I 0.636773
2 *50:5 *50:8 2.2294
3 *50:6 *50:8 22.9294186
4 *50:7 *50:6 1.57864
5 *50:4 *50:7 2.30953
6 *50:3 *50:4 1.57864
7 *50:3 *249:ZN 1.57864
8 *50:2 *50:3 0.689254
*END

*D_NET *51 0.0113899

*CONN
*I *250:ZN O *C -85.1 173.4 *L 0 *D INVD2
*I *249:I I *C -100.5 173.4 *L 0.0057 *D INVD6
*I *248:I I *C -50.1 173.4 *L 0.00302 *D INVD3
*I *247:I I *C -43.1 173.6 *L 0.00734 *D CKND8
*I *246:I I *C -111.1 173.4 *L 0.00394 *D INVD4
*I *245:I I *C -132.7 173.6 *L 0.00734 *D CKND8
*I *244:I I *C -118.1 173.4 *L 0.0057 *D INVD6

*CAP
1 *250:ZN 6.69526e-05
2 *249:I 2.95728e-05
3 *248:I 6.07286e-05
4 *247:I 6.69526e-05
5 *246:I 6.07286e-05
6 *245:I 6.69526e-05
7 *244:I 2.95728e-05
8 *51:13 5.13387e-05
9 *51:14 0.000830809
10 *51:15 2.27732e-05
11 *51:16 5.42888e-05
12 *51:17 0.00100504
13 *51:18 0.000187043
14 *51:19 0.00022435
15 *51:20 5.13387e-05
16 *51:21 5.13387e-05
17 *51:22 0.000389879
18 *51:23 0.000179703
19 *51:24 0.000124515
20 *51:25 0.000161931
21 *51:26 0.000124515
22 *51:27 0.000161931
23 *51:28 0.00016096
24 *51:29 4.96118e-05
25 *51:30 0.00016096
26 *51:31 2.27732e-05
27 *51:32 5.13387e-05
28 *51:33 7.19173e-05
29 *51:34 3.64803e-05
30 *51:35 7.22411e-05
31 *51:36 7.22411e-05
32 *51:37 0.000125199
33 *51:38 0.000693414
34 *51:39 0.000125199
35 *51:40 6.70245e-05
36 *51:41 6.13042e-05
37 *51:42 0.00235773
38 *51:43 0.000318178
39 *51:44 0.00167849
40 *51:45 5.13387e-05
41 *51:46 5.13387e-05
42 *51:47 0.000705466
43 *51:48 5.42888e-05
44 *51:49 0.000400132

*RES
1 *51:45 *248:I 1.57867
2 *51:11 *51:45 0.374784
3 *51:48 *247:I 1.57867
4 *51:12 *51:48 0.689089
5 *51:45 *51:46 0.212394
6 *51:49 *51:48 1.57867
7 *51:47 *51:46 1.57867
8 *51:47 *51:49 7.43092
9 *51:43 *51:47 5.94464
10 *51:40 *250:ZN 1.57867
11 *51:43 *51:44 0.31859
12 *51:40 *51:41 0.424787
13 *51:42 *51:44 31.2094879
14 *51:42 *51:41 1.57867
15 *51:38 *51:42 12.7384
16 *51:38 *51:39 0.31859
17 *51:37 *51:39 2.12298
18 *51:36 *51:37 0.31859
19 *51:31 *249:I 3.15733
20 *51:10 *51:31 0.374784
21 *51:35 *51:36 1.06292
22 *51:31 *51:32 0.212394
23 *51:34 *51:35 0.31859
24 *51:33 *51:32 1.57867
25 *51:33 *51:34 0.424787
26 *51:29 *51:33 0.639086
27 *51:29 *51:30 0.31859
28 *51:28 *51:30 2.76017
29 *51:27 *51:28 0.31859
30 *51:25 *51:27 2.76064
31 *51:25 *51:26 0.31859
32 *51:20 *246:I 1.57867
33 *51:9 *51:20 0.374784
34 *51:24 *51:26 2.12298
35 *51:20 *51:21 0.212394
36 *51:23 *51:24 0.31859
37 *51:22 *51:21 1.57867
38 *51:22 *51:23 2.98065
39 *51:19 *51:22 4.03405
40 *51:16 *244:I 3.15733
41 *51:8 *51:16 0.689089
42 *51:18 *51:19 0.31859
43 *51:17 *51:16 1.57867
44 *51:17 *51:18 3.39687
45 *51:15 *245:I 1.57867
46 *51:14 *51:17 15.4985
47 *51:13 *51:15 0.212394
48 *51:13 *51:14 1.57867
49 *51:7 *51:13 0.374784
*END

*D_NET *52 0.00282209

*CONN
*I *310:I I *C -3.535 195.5 *L 0.0897 *D PDDW16DGZ
*I *251:ZN O *C -2.7 173.8 *L 0 *D INVD6

*CAP
1 *310:I 4.26917e-05
2 *251:ZN 6.6954e-05
3 *52:2 8.77008e-05
4 *52:3 0.000137471
5 *52:4 8.19781e-05
6 *52:5 0.000115668
7 *52:6 0.000137471
8 *52:7 0.00103316
9 *52:8 0.00103316
10 *52:9 8.58405e-05

*RES
1 *52:5 *310:I 0.955354
2 *52:5 *52:9 1.48632
3 *52:8 *52:9 1.57865
4 *52:7 *52:8 21.2309437
5 *52:6 *52:7 1.57865
6 *52:3 *52:6 2.41349
7 *52:4 *52:3 1.57865
8 *52:2 *52:4 0.849095
9 *251:ZN *52:2 1.57865
*END

*D_NET *53 0.00052034

*CONN
*I *208:I I *C -17.9 173.4 *L 0.00184 *D CKBD4
*I *252:ZN O *C -15.3 173.8 *L 0 *D INVD1

*CAP
1 *208:I 2.95801e-05
2 *252:ZN 6.07204e-05
3 *53:4 2.27805e-05
4 *53:5 5.13597e-05
5 *53:6 0.0001508
6 *53:7 5.43004e-05
7 *53:8 0.0001508

*RES
1 *53:3 *53:7 0.689295
2 *53:7 *252:ZN 1.57861
3 *53:8 *53:7 1.57861
4 *53:6 *53:8 2.55002594
5 *53:5 *53:6 1.57861
6 *53:4 *208:I 3.1572299
7 *53:4 *53:5 0.212309
8 *53:2 *53:4 0.374805
*END

*D_NET *54 0.00562567

*CONN
*I *311:REN I *C 11.105 195.5 *L 0.0635 *D PDDW16DGZ
*I *253:ZN O *C 11.5 173.8 *L 0 *D INVD3

*CAP
1 *311:REN 4.79561e-05
2 *253:ZN 6.69617e-05
3 *54:2 0.000264369
4 *54:3 0.000264369
5 *54:8 5.43015e-05
6 *54:9 0.000274253
7 *54:10 5.43015e-05
8 *54:11 5.43015e-05
9 *54:12 5.43015e-05
10 *54:13 6.79379e-05
11 *54:14 0.000127212
12 *54:15 0.00199924
13 *54:16 0.000296919
14 *54:17 0.00199924

*RES
1 *54:9 *311:REN 1.27386
2 *54:9 *54:16 5.09542656
3 *54:17 *54:16 0.207593
4 *54:15 *54:17 1.34127
5 *54:14 *54:15 0.207593
6 *54:13 *54:14 1.27386
7 *54:12 *54:13 1.57864
8 *54:7 *54:12 0.689332
9 *54:11 *54:12 1.57864
10 *54:6 *54:11 0.689332
11 *54:10 *54:11 1.57864
12 *54:5 *54:10 0.689332
13 *54:2 *54:10 1.57864
14 *54:3 *54:2 4.67083
15 *54:8 *54:3 1.57864
16 *54:8 *253:ZN 1.57864
17 *54:4 *54:8 0.689332
*END

*D_NET *55 0.00546777

*CONN
*I *311:OEN I *C 15.065 195.5 *L 0.0874 *D PDDW16DGZ
*I *254:ZN O *C 15.7 173.6 *L 0 *D INVD4

*CAP
1 *311:OEN 7.93401e-05
2 *254:ZN 6.07257e-05
3 *55:2 0.00089632
4 *55:3 6.15737e-05
5 *55:4 0.00089632
6 *55:5 7.10518e-05
7 *55:6 0.000120781
8 *55:7 0.000670117
9 *55:8 6.11497e-05
10 *55:9 0.000669816
11 *55:10 7.06279e-05
12 *55:11 0.000670117
13 *55:12 6.11497e-05
14 *55:13 6.15737e-05
15 *55:14 0.000173438
16 *55:15 0.000670226
17 *55:16 0.000173438

*RES
1 *55:6 *311:OEN 1.69837
2 *55:5 *55:6 1.57857
3 *55:5 *55:10 1.25762
4 *55:9 *55:10 0.405926
5 *55:9 *55:15 14.841
6 *55:16 *55:15 1.57857
7 *55:14 *55:16 2.76013
8 *55:13 *55:14 1.57857
9 *55:12 *55:13 1.00604
10 *55:11 *55:12 0.405926
11 *55:7 *55:11 15.1433
12 *55:7 *55:8 0.405926
13 *55:3 *55:8 1.00604
14 *55:4 *55:3 1.57857
15 *55:2 *55:4 18.2586117
16 *254:ZN *55:2 1.57857
*END

*D_NET *56 0.00284905

*CONN
*I *311:I I *C 28.77 195.5 *L 0.0897 *D PDDW16DGZ
*I *255:ZN O *C 29.5 173.8 *L 0 *D INVD6

*CAP
1 *311:I 4.26917e-05
2 *255:ZN 6.6954e-05
3 *56:2 8.77008e-05
4 *56:3 0.00015095
5 *56:4 8.19781e-05
6 *56:5 0.000115668
7 *56:6 0.00015095
8 *56:7 0.00103316
9 *56:8 0.00103316
10 *56:9 8.58405e-05

*RES
1 *56:5 *311:I 0.955354
2 *56:5 *56:9 1.48632
3 *56:8 *56:9 1.57865
4 *56:7 *56:8 21.2309437
5 *56:6 *56:7 1.57865
6 *56:3 *56:6 2.6814
7 *56:4 *56:3 1.57865
8 *56:2 *56:4 0.849095
9 *255:ZN *56:2 1.57865
*END

*D_NET *57 0.00483769

*CONN
*I *312:OEN I *C 79.675 195.5 *L 0.0874 *D PDDW16DGZ
*I *256:ZN O *C 80.3 173.6 *L 0 *D INVD4

*CAP
1 *312:OEN 3.59759e-05
2 *256:ZN 6.0728e-05
3 *57:4 0.00011175
4 *57:5 8.31485e-05
5 *57:6 5.43027e-05
6 *57:7 5.43027e-05
7 *57:8 0.000193462
8 *57:9 0.000158543
9 *57:10 0.000164887
10 *57:11 5.43027e-05
11 *57:12 3.02013e-05
12 *57:13 8.94924e-05
13 *57:14 0.0017767
14 *57:15 0.000193191
15 *57:16 0.0017767

*RES
1 *57:9 *312:OEN 0.955386
2 *57:9 *57:15 2.76003
3 *57:16 *57:15 0.207586
4 *57:14 *57:16 1.27613
5 *57:13 *57:14 0.207586
6 *57:12 *57:13 0.424606
7 *57:11 *57:12 1.5786
8 *57:10 *57:11 1.5786
9 *57:8 *57:10 2.97233224
10 *57:4 *256:ZN 1.5786
11 *57:7 *57:8 1.5786
12 *57:3 *57:7 0.689293
13 *57:4 *57:5 1.48617
14 *57:6 *57:7 1.5786
15 *57:6 *57:5 1.5786
16 *57:2 *57:6 0.689293
*END

*D_NET *58 0.00404844

*CONN
*I *312:I I *C 93.38 195.5 *L 0.0897 *D PDDW16DGZ
*I *313:REN I *C 108.02 195.5 *L 0.0635 *D PDDW16DGZ
*I *257:ZN O *C 94.3 173.8 *L 0 *D CKND8

*CAP
1 *312:I 2.97592e-05
2 *313:REN 4.5448e-05
3 *257:ZN 6.07172e-05
4 *58:3 5.13669e-05
5 *58:4 5.26106e-05
6 *58:5 5.38843e-05
7 *58:6 0.000193105
8 *58:7 9.79987e-05
9 *58:8 0.000133227
10 *58:9 0.000133227
11 *58:10 0.00098201
12 *58:11 0.000953554
13 *58:12 0.000481917
14 *58:13 0.000192686
15 *58:14 0.000481917
16 *58:15 3.73564e-05
17 *58:16 6.76551e-05

*RES
1 *58:16 *313:REN 1.21757
2 *58:15 *58:16 0.503091
3 *58:14 *58:15 0.405855
4 *58:12 *58:14 10.5646
5 *58:12 *58:13 0.405855
6 *58:6 *58:13 4.02473
7 *58:7 *58:6 1.57861
8 *58:7 *312:I 0.636967
9 *58:5 *58:7 0.849196
10 *58:5 *58:9 0.318484
11 *58:8 *58:9 2.54759
12 *58:8 *58:11 0.318484
13 *58:10 *58:11 18.4709206
14 *58:4 *58:10 0.955451
15 *58:3 *58:4 0.212228
16 *257:ZN *58:3 1.57861
*END

*D_NET *59 0.00419379

*CONN
*I *312:REN I *C 75.715 195.5 *L 0.0635 *D PDDW16DGZ
*I *258:ZN O *C 76.1 173.8 *L 0 *D INVD3

*CAP
1 *312:REN 0.000109098
2 *258:ZN 6.69439e-05
3 *59:2 0.000479721
4 *59:3 0.000479721
5 *59:5 0.00106952
6 *59:6 0.00106952
7 *59:7 0.000357225
8 *59:8 0.000150534
9 *59:9 0.000357225
10 *59:10 5.42961e-05

*RES
1 *59:8 *312:REN 2.3353
2 *59:9 *59:8 1.57864
3 *59:7 *59:9 7.00621
4 *59:6 *59:7 1.57864
5 *59:5 *59:6 20.3817062
6 *59:3 *59:5 1.57864
7 *59:3 *59:2 8.70863
8 *59:10 *59:2 1.57864
9 *59:10 *258:ZN 1.57864
10 *59:4 *59:10 0.689176
*END

*D_NET *60 0.0150784

*CONN
*I *259:ZN O *C 46.1 153.4 *L 0 *D INVD2
*I *258:I I *C 75.7 173.4 *L 0.00302 *D INVD3
*I *257:I I *C 93.3 173.6 *L 0.00734 *D CKND8
*I *256:I I *C 79.7 173.4 *L 0.00394 *D INVD4
*I *255:I I *C 28.7 173.4 *L 0.0057 *D INVD6
*I *254:I I *C 15.1 173.4 *L 0.00394 *D INVD4
*I *253:I I *C 11.1 173.4 *L 0.00302 *D INVD3
*I *252:I I *C -15.7 173.4 *L 0.00107 *D INVD1
*I *251:I I *C -3.5 173.4 *L 0.0057 *D INVD6

*CAP
1 *259:ZN 6.07281e-05
2 *258:I 6.07281e-05
3 *257:I 6.69264e-05
4 *256:I 6.07281e-05
5 *255:I 2.95794e-05
6 *254:I 2.95794e-05
7 *253:I 2.95794e-05
8 *252:I 6.07281e-05
9 *251:I 2.95794e-05
10 *60:9 0.00148364
11 *60:10 0.000681347
12 *60:19 5.42944e-05
13 *60:20 5.42944e-05
14 *60:21 5.42944e-05
15 *60:22 0.00103053
16 *60:23 5.42944e-05
17 *60:24 0.000974435
18 *60:25 5.42944e-05
19 *60:26 0.0017111
20 *60:27 0.00103006
21 *60:28 0.00103006
22 *60:29 0.00257094
23 *60:30 0.00161879
24 *60:31 4.9626e-05
25 *60:32 5.42944e-05
26 *60:33 0.000272099
27 *60:34 5.42944e-05
28 *60:35 0.000288811
29 *60:36 6.63772e-05
30 *60:37 0.000704728
31 *60:38 5.42944e-05
32 *60:39 0.000703355

*RES
1 *60:38 *257:I 1.5788
2 *60:18 *60:38 0.689108
3 *60:39 *60:38 1.5788
4 *60:37 *60:39 13.3754
5 *60:34 *256:I 1.5788
6 *60:17 *60:34 0.689108
7 *60:36 *60:37 0.318484
8 *60:32 *258:I 1.5788
9 *60:16 *60:32 0.689108
10 *60:35 *60:34 1.5788
11 *60:35 *60:36 1.06161
12 *60:33 *60:32 1.5788
13 *60:33 *60:35 4.24786
14 *60:31 *60:33 0.639316
15 *60:27 *259:ZN 1.5788
16 *60:30 *60:31 0.318484
17 *60:27 *60:28 20.8062
18 *60:25 *255:I 3.15712
19 *60:15 *60:25 0.689108
20 *60:29 *60:30 30.7848682
21 *60:29 *60:28 1.5788
22 *60:23 *254:I 3.15712
23 *60:14 *60:23 0.689108
24 *60:26 *60:25 1.5788
25 *60:26 *60:29 18.4711
26 *60:21 *253:I 3.15712
27 *60:13 *60:21 0.689108
28 *60:24 *60:23 1.5788
29 *60:24 *60:26 14.437
30 *60:20 *251:I 3.15712
31 *60:12 *60:20 0.689108
32 *60:22 *60:21 1.5788
33 *60:22 *60:24 4.34979
34 *60:9 *60:20 1.5788
35 *60:9 *60:22 15.4986
36 *60:10 *60:9 12.9526
37 *60:19 *252:I 1.5788
38 *60:19 *60:10 1.5788
39 *60:11 *60:19 0.689108
*END

*D_NET *61 0.0248985

*CONN
*I *314:E I *C 1.015 -195.5 *L 0.0574 *D PDXOE3DG
*I *260:Z O *C 46.9 1 *L 0 *D CKBD4

*CAP
1 *314:E 4.55142e-05
2 *260:Z 6.07353e-05
3 *61:2 8.98346e-05
4 *61:3 5.95415e-05
5 *61:4 0.002423
6 *61:5 0.00242344
7 *61:6 0.00977958
8 *61:7 0.0097666
9 *61:8 0.000118635
10 *61:9 0.000131618

*RES
1 *61:9 *260:Z 1.57858
2 *61:8 *61:9 1.90927
3 *61:7 *61:8 0.636423
4 *61:6 *61:7 204.453995
5 *61:5 *61:6 1.57858
6 *61:4 *61:5 54.5857
7 *61:3 *61:4 0.405564
8 *61:2 *61:3 1.00767
9 *314:E *61:2 1.21669
*END

*D_NET *62 0.00420528

*CONN
*I *313:I I *C 125.685 195.5 *L 0.0897 *D PDDW16DGZ
*I *261:Z O *C 141.5 173.8 *L 0 *D CKBD4

*CAP
1 *313:I 4.95834e-05
2 *261:Z 6.07174e-05
3 *62:2 0.000835405
4 *62:3 6.80954e-05
5 *62:4 9.10175e-05
6 *62:5 0.0010989
7 *62:6 5.20986e-05
8 *62:7 0.0010989
9 *62:8 0.000850564

*RES
1 *62:5 *261:Z 1.57858
2 *62:5 *62:7 21.0186348
3 *62:4 *313:I 1.06158
4 *62:6 *62:7 1.57858
5 *62:3 *62:4 1.57858
6 *62:6 *62:8 0.81174
7 *62:2 *62:3 0.40603
8 *62:2 *62:8 18.3624
*END

*D_NET *64 0.00758022

*CONN
*I *324:REN I *C 140.33 195.5 *L 0.0635 *D PDDW16DGZ
*I *263:ZN O *C 157.5 173.6 *L 0 *D INVD4
*I *211:I I *C 144.5 173.4 *L 0.00184 *D CKBD4
*I *213:I I *C 129.3 173.4 *L 0.00184 *D CKBD4
*I *206:I I *C 138.3 173.4 *L 0.00184 *D CKBD4
*I *261:I I *C 140.3 173.4 *L 0.00184 *D CKBD4

*CAP
1 *324:REN 4.95726e-05
2 *263:ZN 6.07174e-05
3 *211:I 0.000128364
4 *213:I 6.07174e-05
5 *206:I 6.9996e-05
6 *261:I 2.95811e-05
7 *64:6 0.000706094
8 *64:7 0.000707477
9 *64:12 0.00113236
10 *64:13 8.26441e-05
11 *64:14 0.00113236
12 *64:15 0.0002108
13 *64:16 0.000331751
14 *64:17 8.40091e-05
15 *64:18 0.000212165
16 *64:19 0.000337384
17 *64:20 0.000331751
18 *64:21 4.84322e-05
19 *64:22 8.55642e-05
20 *64:23 5.4307e-05
21 *64:24 9.20782e-05
22 *64:25 0.000105314
23 *64:26 5.78318e-05
24 *64:27 9.10242e-05
25 *64:28 0.000364598
26 *64:29 0.000105314
27 *64:30 4.55121e-05
28 *64:31 5.4307e-05
29 *64:32 0.000144813
30 *64:33 0.000143932
31 *64:34 5.4307e-05
32 *64:35 0.000255068
33 *64:36 0.000155768
34 *64:37 5.4307e-05

*RES
1 *64:27 *324:REN 1.06143
2 *64:28 *64:27 1.57863
3 *64:19 *64:28 6.58145
4 *64:11 *64:37 0.689377
5 *64:37 *263:ZN 1.57863
6 *64:18 *64:19 0.318328
7 *64:6 *64:37 1.57863
8 *64:15 *64:18 3.82161
9 *64:33 *211:I 2.76685
10 *64:7 *64:6 13.3778
11 *64:14 *64:15 1.57863
12 *64:34 *64:33 1.57863
13 *64:10 *64:34 0.689377
14 *64:7 *64:36 0.318328
15 *64:12 *213:I 1.57863
16 *64:12 *64:14 21.8678722
17 *64:31 *261:I 3.15725
18 *64:9 *64:31 0.689377
19 *64:35 *64:34 1.57863
20 *64:35 *64:36 2.76018
21 *64:13 *64:12 1.57863
22 *64:32 *64:31 1.57863
23 *64:32 *64:35 1.91064
24 *64:13 *64:17 1.27398
25 *64:30 *64:32 0.63699
26 *64:16 *64:17 0.318328
27 *64:29 *64:30 0.318328
28 *64:16 *64:20 6.57478
29 *64:25 *64:29 2.31605
30 *64:20 *64:21 0.318328
31 *64:25 *64:26 0.318328
32 *64:22 *206:I 1.50922
33 *64:21 *64:24 0.63699
34 *64:24 *64:26 0.849209
35 *64:23 *64:22 1.57863
36 *64:23 *64:24 1.57863
37 *64:8 *64:23 0.689377
*END

*D_NET *65 0.00314113

*CONN
*I *325:REN I *C 172.64 195.5 *L 0.0635 *D PDDW16DGZ
*I *325:OEN I *C 176.6 195.5 *L 0.0874 *D PDDW16DGZ
*I *264:ZN O *C 170.7 173.8 *L 0 *D CKND8
*I *262:I I *C 172.1 173.4 *L 0.00184 *D CKBD4

*CAP
1 *325:REN 2.90432e-05
2 *325:OEN 2.90432e-05
3 *264:ZN 6.07171e-05
4 *262:I 2.95765e-05
5 *65:7 5.42946e-05
6 *65:8 9.12652e-05
7 *65:9 0.00077656
8 *65:10 9.12652e-05
9 *65:11 0.00077656
10 *65:12 0.000102285
11 *65:13 0.000102285
12 *65:14 5.42946e-05
13 *65:15 5.42946e-05
14 *65:16 0.000322604
15 *65:17 0.000438386
16 *65:18 0.000128651

*RES
1 *65:18 *325:OEN 0.636961
2 *65:17 *65:18 2.22924
3 *65:17 *325:REN 0.636961
4 *65:16 *65:17 6.79393
5 *65:15 *65:16 1.57862
6 *65:6 *65:15 0.0795901
7 *65:14 *65:15 1.57862
8 *65:5 *65:14 0.689222
9 *65:13 *65:14 1.57862
10 *65:12 *65:13 1.69848
11 *65:11 *65:12 1.57862
12 *65:9 *262:I 3.15723
13 *65:9 *65:11 15.7108984
14 *65:10 *65:9 1.57862
15 *65:8 *65:10 1.48608
16 *65:7 *65:8 1.57862
17 *65:7 *264:ZN 1.57862
18 *65:4 *65:7 0.374697
*END

*D_NET *66 0.00223991

*CONN
*I *265:ZN O *C 152.1 173.8 *L 0 *D INVD1
*I *264:I I *C 169.7 173.6 *L 0.00734 *D CKND8
*I *263:I I *C 156.9 173.4 *L 0.00394 *D INVD4

*CAP
1 *265:ZN 0.000280038
2 *264:I 6.69547e-05
3 *263:I 0.000295609
4 *66:5 5.13616e-05
5 *66:6 5.13616e-05
6 *66:7 0.00072015
7 *66:8 5.42956e-05
8 *66:9 0.00072015

*RES
1 *66:8 *264:I 1.5787
2 *66:4 *66:8 0.689294
3 *66:9 *66:8 1.5787
4 *66:7 *66:9 13.5901289
5 *66:6 *66:7 1.5787
6 *265:ZN *263:I 6.03692
7 *66:5 *66:6 0.212346
8 *66:5 *263:I 1.5787
9 *66:3 *66:5 0.374716
*END

*D_NET *67 0.00515569

*CONN
*I *318:OEN I *C 195.5 15.535 *L 0.0874 *D PDDW16DGZ
*I *266:Z O *C 173.9 15.4 *L 0 *D CKBD4

*CAP
1 *318:OEN 4.26962e-05
2 *266:Z 6.07224e-05
3 *67:2 8.98704e-05
4 *67:3 0.000102849
5 *67:4 7.59152e-05
6 *67:5 0.00106716
7 *67:6 4.87049e-05
8 *67:7 0.000441194
9 *67:8 0.000455426
10 *67:9 0.000176517
11 *67:10 0.000176517
12 *67:11 0.000569592
13 *67:12 0.000569592
14 *67:13 7.11929e-05
15 *67:14 0.00106716
16 *67:15 4.39826e-05
17 *67:16 3.40657e-05
18 *67:17 6.25299e-05

*RES
1 *67:17 *318:OEN 0.955418
2 *67:16 *67:17 0.424703
3 *67:12 *67:16 0.318364
4 *67:11 *67:12 11.8894
5 *67:11 *67:15 0.318364
6 *67:13 *67:15 0.637055
7 *67:14 *67:13 1.57873
8 *67:5 *67:14 21.4432526
9 *67:4 *67:5 1.57873
10 *67:4 *67:6 0.639345
11 *67:6 *67:9 0.318364
12 *67:9 *67:10 3.18462
13 *67:7 *67:10 0.318364
14 *67:7 *67:8 8.49243
15 *67:3 *266:Z 1.57873
16 *67:2 *67:8 0.637055
17 *67:2 *67:3 1.07975
*END

*D_NET *68 0.00049917

*CONN
*I *205:I I *C 171.5 -174.2 *L 0.00285 *D BUFFD8
*I *267:ZN O *C 172.5 -171.8 *L 0 *D INVD1

*CAP
1 *205:I 6.69501e-05
2 *267:ZN 6.07204e-05
3 *68:2 0.00010754
4 *68:3 0.00013153
5 *68:4 8.10695e-05
6 *68:5 5.13596e-05

*RES
1 *68:5 *267:ZN 1.57862
2 *68:4 *68:5 0.212306
3 *68:3 *68:4 1.59232068
4 *68:2 *68:3 1.27386
5 *205:I *68:2 1.57862
*END

*D_NET *69 0.00495996

*CONN
*I *322:REN I *C 195.5 -174.95 *L 0.0635 *D PDDW16DGZ
*I *322:OEN I *C 195.5 -178.91 *L 0.0874 *D PDDW16DGZ
*I *268:ZN O *C 169.9 -174.6 *L 0 *D CKND8

*CAP
1 *322:REN 5.69203e-05
2 *322:OEN 2.84524e-05
3 *268:ZN 6.0715e-05
4 *69:3 0.000282511
5 *69:4 0.000282511
6 *69:5 0.000154405
7 *69:6 0.000155768
8 *69:7 0.000158726
9 *69:8 0.000214129
10 *69:9 0.000157363
11 *69:10 0.000214129
12 *69:11 0.00101504
13 *69:12 0.000281984
14 *69:13 0.000281984
15 *69:14 4.39874e-05
16 *69:15 4.39874e-05
17 *69:16 7.37253e-05
18 *69:17 0.000100939
19 *69:18 0.00101504
20 *69:19 9.78874e-05
21 *69:20 9.78874e-05
22 *69:21 7.80466e-05
23 *69:22 6.38127e-05

*RES
1 *69:19 *322:OEN 0.636928
2 *69:19 *69:20 1.48627
3 *69:20 *322:REN 0.636928
4 *69:21 *322:REN 0.636928
5 *69:21 *69:22 1.06144
6 *69:14 *69:22 0.318464
7 *69:14 *69:15 0.636928
8 *69:12 *69:15 0.318464
9 *69:12 *69:13 5.73236
10 *69:13 *69:16 0.318464
11 *69:16 *69:17 1.27386
12 *69:18 *69:17 1.57864
13 *69:11 *69:18 20.3817062
14 *69:10 *69:11 1.57864
15 *69:8 *69:10 3.39705
16 *69:9 *69:8 1.57864
17 *69:7 *69:9 2.76013
18 *69:6 *69:7 0.318464
19 *69:5 *69:6 2.76013
20 *69:4 *69:5 1.57864
21 *69:3 *69:4 4.88301
22 *268:ZN *69:3 1.57864
*END

*D_NET *70 0.00697943

*CONN
*I *320:OEN I *C 195.5 -101.13 *L 0.0874 *D PDDW16DGZ
*I *269:ZN O *C 171.7 -142.2 *L 0 *D INVD6

*CAP
1 *320:OEN 2.84701e-05
2 *269:ZN 6.69528e-05
3 *70:2 0.00100355
4 *70:3 0.00100355
5 *70:5 5.42938e-05
6 *70:6 0.000124078
7 *70:7 0.000124078
8 *70:8 0.00110467
9 *70:9 0.000108048
10 *70:10 0.000108048
11 *70:11 3.61565e-05
12 *70:12 3.61565e-05
13 *70:13 0.000470439
14 *70:14 0.000470439
15 *70:15 0.000133231
16 *70:16 0.000133231
17 *70:17 0.000319121
18 *70:18 0.00110467
19 *70:19 0.000291915
20 *70:20 4.39946e-05
21 *70:21 4.39946e-05
22 *70:22 4.39946e-05
23 *70:23 4.39946e-05
24 *70:24 3.40663e-05
25 *70:25 4.83098e-05

*RES
1 *70:25 *320:OEN 0.636773
2 *70:24 *70:25 0.424515
3 *70:23 *70:24 0.318386
4 *70:22 *70:23 0.636773
5 *70:16 *70:22 0.318386
6 *70:15 *70:16 2.54777
7 *70:15 *70:21 0.318386
8 *70:20 *70:21 0.636773
9 *70:14 *70:20 0.318386
10 *70:13 *70:14 9.76621
11 *70:10 *70:13 0.318386
12 *70:9 *70:10 2.22432
13 *70:9 *70:12 0.318386
14 *70:11 *70:12 0.728414
15 *70:11 *70:19 0.318386
16 *70:17 *70:19 5.94456
17 *70:18 *70:17 1.57846
18 *70:8 *70:18 22.0801811
19 *70:2 *70:8 1.57846
20 *70:3 *70:2 18.4708
21 *70:7 *70:3 1.57846
22 *70:6 *70:7 2.12325
23 *70:5 *70:6 1.57846
24 *70:5 *269:ZN 1.57846
25 *70:4 *70:5 0.689332
*END

*D_NET *71 0.00492595

*CONN
*I *320:REN I *C 195.5 -97.17 *L 0.0635 *D PDDW16DGZ
*I *270:ZN O *C 173.3 -100 *L 0 *D INVD4

*CAP
1 *320:REN 5.21239e-05
2 *270:ZN 6.07179e-05
3 *71:2 7.07842e-05
4 *71:3 5.51806e-05
5 *71:4 0.000690222
6 *71:5 0.000677227
7 *71:7 5.43004e-05
8 *71:8 8.86923e-05
9 *71:9 0.0010488
10 *71:10 0.000117275
11 *71:11 0.000448423
12 *71:12 6.49749e-05
13 *71:13 0.000448423
14 *71:14 0.0010488

*RES
1 *71:12 *320:REN 1.06158
2 *71:11 *71:12 1.57858
3 *71:11 *71:13 8.70463
4 *71:14 *71:13 1.57858
5 *71:9 *71:14 21.0186348
6 *71:4 *71:9 1.57858
7 *71:5 *71:4 12.5263
8 *71:5 *71:2 0.636948
9 *71:3 *71:2 0.763632
10 *71:10 *71:3 1.57858
11 *71:8 *71:10 1.48621
12 *71:7 *71:8 1.57858
13 *71:7 *270:ZN 1.57858
14 *71:6 *71:7 0.689225
*END

*D_NET *72 0.00539468

*CONN
*I *319:OEN I *C 195.5 -23.35 *L 0.0874 *D PDDW16DGZ
*I *271:ZN O *C 173.5 -23.4 *L 0 *D INVD6

*CAP
1 *319:OEN 5.21154e-05
2 *271:ZN 6.69502e-05
3 *72:2 0.000643703
4 *72:3 0.000643703
5 *72:4 0.000120581
6 *72:5 0.000133562
7 *72:6 3.83771e-05
8 *72:7 5.70819e-05
9 *72:8 0.00105674
10 *72:9 5.95328e-05
11 *72:10 5.95328e-05
12 *72:11 0.000517462
13 *72:12 0.00105674
14 *72:13 0.000490243
15 *72:14 0.000153073
16 *72:15 0.000180275
17 *72:16 6.4983e-05

*RES
1 *72:16 *319:OEN 1.06161
2 *72:15 *72:16 1.57865
3 *72:14 *72:15 2.97232
4 *72:13 *72:14 0.318451
5 *72:11 *72:13 10.1908
6 *72:12 *72:11 1.57865
7 *72:8 *72:12 21.2309437
8 *72:5 *72:8 1.57865
9 *72:5 *72:4 1.61947
10 *72:4 *72:3 0.636902
11 *72:3 *72:2 12.314
12 *72:9 *72:2 0.636902
13 *72:9 *72:10 0.636902
14 *72:7 *271:ZN 1.57865
15 *72:6 *72:10 0.636902
16 *72:6 *72:7 0.212193
*END

*D_NET *73 0.0102257

*CONN
*I *319:REN I *C 195.5 -19.39 *L 0.0635 *D PDDW16DGZ
*I *318:REN I *C 195.5 19.495 *L 0.0635 *D PDDW16DGZ
*I *272:ZN O *C 173.3 -19.8 *L 0 *D INVD8
*I *266:I I *C 172.7 15 *L 0.00184 *D CKBD4

*CAP
1 *319:REN 2.84521e-05
2 *318:REN 2.84521e-05
3 *272:ZN 6.07176e-05
4 *266:I 2.95795e-05
5 *73:4 0.000475312
6 *73:5 0.000499586
7 *73:6 0.000559507
8 *73:7 0.000516813
9 *73:8 7.67675e-05
10 *73:9 3.26967e-05
11 *73:10 6.13974e-05
12 *73:11 0.000774158
13 *73:12 0.000774158
14 *73:13 2.41577e-05
15 *73:14 0.0010866
16 *73:15 0.000181025
17 *73:16 0.000181025
18 *73:17 0.000233154
19 *73:18 0.000233154
20 *73:19 0.000933048
21 *73:20 0.000933048
22 *73:21 4.55133e-05
23 *73:22 4.55133e-05
24 *73:23 4.55133e-05
25 *73:24 4.55133e-05
26 *73:25 0.000306125
27 *73:26 0.0010866
28 *73:27 0.000466425
29 *73:28 0.000160167
30 *73:29 4.55133e-05
31 *73:30 4.55133e-05
32 *73:31 4.92937e-05
33 *73:32 3.50677e-05
34 *73:33 5.59259e-05
35 *73:34 7.01519e-05

*RES
1 *73:31 *319:REN 0.63699
2 *73:31 *73:32 0.424771
3 *73:21 *73:32 0.318328
4 *73:21 *73:22 0.63699
5 *73:15 *73:22 0.318328
6 *73:34 *318:REN 0.63699
7 *73:15 *73:16 3.39683
8 *73:33 *73:34 0.849209
9 *73:16 *73:23 0.318328
10 *73:30 *73:33 0.318328
11 *73:23 *73:24 0.63699
12 *73:29 *73:30 0.63699
13 *73:17 *73:24 0.318328
14 *73:20 *73:29 0.318328
15 *73:17 *73:18 4.4586
16 *73:19 *73:20 18.6833
17 *73:18 *73:25 0.318328
18 *73:19 *73:28 0.318328
19 *73:10 *272:ZN 1.57863
20 *73:25 *73:27 5.94479
21 *73:27 *73:28 2.9724
22 *73:10 *73:11 0.318328
23 *73:26 *73:27 1.57863
24 *73:11 *73:12 15.9231
25 *73:14 *73:26 21.8678722
26 *73:12 *73:13 0.318328
27 *73:5 *73:14 1.57863
28 *73:13 *73:5 0.212219
29 *73:5 *73:4 9.34396
30 *73:7 *73:4 0.318328
31 *73:9 *266:I 3.15725
32 *73:7 *73:6 10.4324
33 *73:8 *73:9 0.424771
34 *73:8 *73:6 1.27398
*END

*D_NET *74 0.0188288

*CONN
*I *271:I I *C 172.7 -23 *L 0.0057 *D INVD6
*I *272:I I *C 172.1 -19.4 *L 0.00766 *D INVD8
*I *273:ZN O *C 172.97 -96.895 *L 0 *D CKND2
*I *270:I I *C 172.7 -100.2 *L 0.00394 *D INVD4
*I *269:I I *C 170.9 -141.8 *L 0.0057 *D INVD6
*I *268:I I *C 168.9 -174.4 *L 0.00734 *D CKND8
*I *267:I I *C 172.1 -172.2 *L 0.00107 *D INVD1

*CAP
1 *271:I 3.50007e-05
2 *272:I 2.9543e-05
3 *273:ZN 3.52973e-05
4 *270:I 6.0747e-05
5 *269:I 2.3314e-05
6 *268:I 6.69166e-05
7 *267:I 0.00023931
8 *74:7 0.00388775
9 *74:8 0.000307591
10 *74:9 0.00370201
11 *74:10 0.00133928
12 *74:11 0.000104231
13 *74:12 7.70016e-05
14 *74:13 5.25011e-05
15 *74:14 5.38655e-05
16 *74:15 0.000194165
17 *74:16 0.00019903
18 *74:17 0.000233793
19 *74:18 7.00608e-05
20 *74:19 0.000170436
21 *74:20 0.000111706
22 *74:21 0.000111706
23 *74:22 0.000150029
24 *74:23 0.00021392
25 *74:24 5.05434e-05
26 *74:25 0.000305989
27 *74:26 0.00019025
28 *74:27 6.12809e-05
29 *74:28 9.10019e-05
30 *74:29 5.084e-05
31 *74:30 0.00379349
32 *74:31 0.000150029
33 *74:32 0.000233793
34 *74:33 0.00243249

*RES
1 *74:24 *271:I 0.755026
2 *74:26 *272:I 3.1578
3 *74:25 *74:24 1.5789
4 *74:25 *74:26 3.60942
5 *74:18 *269:I 0.502961
6 *74:23 *74:25 2.12271
7 *74:19 *74:18 1.5789
8 *74:27 *270:I 1.5789
9 *74:23 *74:30 2.54748
10 *273:ZN *74:29 0.75736
11 *74:16 *74:19 3.18464
12 *74:27 *74:28 0.424775
13 *74:7 *74:30 76.4781494
14 *74:7 *74:29 1.5789
15 *74:17 *74:16 1.5789
16 *74:28 *74:8 1.59174
17 *74:8 *74:7 3.66193
18 *74:17 *74:32 4.24658
19 *74:8 *74:33 1.27432
20 *74:9 *74:32 1.5789
21 *74:9 *74:33 47.9272
22 *74:10 *74:9 28.1215
23 *74:31 *74:10 1.5789
24 *74:22 *74:31 2.54748
25 *74:21 *74:22 1.5789
26 *74:20 *74:21 1.48671
27 *267:I *74:20 1.5789
28 *74:15 *267:I 3.77279
29 *74:11 *74:15 1.5789
30 *74:12 *74:11 1.27432
31 *74:14 *74:12 0.318581
32 *74:13 *74:14 0.84955
33 *268:I *74:13 1.5789
*END

*D_NET *75 0.00527474

*CONN
*I *315:OEN I *C 195.5 171.09 *L 0.0874 *D PDDW16DGZ
*I *315:REN I *C 195.5 175.05 *L 0.0635 *D PDDW16DGZ
*I *274:ZN O *C 173.1 171 *L 0 *D CKND8

*CAP
1 *315:OEN 2.84549e-05
2 *315:REN 7.11463e-05
3 *274:ZN 6.07277e-05
4 *75:3 7.56241e-05
5 *75:4 4.82931e-05
6 *75:5 3.40746e-05
7 *75:6 0.000549778
8 *75:7 3.69468e-05
9 *75:8 0.000576984
10 *75:9 0.00116915
11 *75:10 0.000103936
12 *75:11 0.000103936
13 *75:12 0.000401009
14 *75:13 0.000401009
15 *75:14 6.25295e-05
16 *75:15 3.40746e-05
17 *75:16 4.39936e-05
18 *75:17 3.69468e-05
19 *75:18 7.11998e-05
20 *75:19 0.00116915
21 *75:20 9.78885e-05
22 *75:21 9.78885e-05

*RES
1 *75:20 *315:OEN 0.637083
2 *75:20 *75:21 1.48613
3 *75:21 *315:REN 0.637083
4 *75:14 *315:REN 0.955225
5 *75:14 *75:15 0.424722
6 *75:12 *75:15 0.318541
7 *75:12 *75:13 8.28008
8 *75:13 *75:16 0.318541
9 *75:16 *75:18 0.637083
10 *75:17 *75:18 1.57874
11 *75:17 *75:19 0.405961
12 *75:9 *75:19 26.1603146
13 *75:7 *75:9 0.405961
14 *75:8 *75:7 1.57874
15 *75:6 *75:8 11.4647
16 *75:6 *75:11 0.318541
17 *75:10 *75:11 1.91085
18 *75:5 *75:10 0.318541
19 *75:4 *75:5 0.424722
20 *75:3 *75:4 0.637083
21 *274:ZN *75:3 1.57874
*END

*D_NET *76 0.00464277

*CONN
*I *316:REN I *C 195.5 136.16 *L 0.0635 *D PDDW16DGZ
*I *275:ZN O *C 172.5 135 *L 0 *D INVD3

*CAP
1 *316:REN 6.25384e-05
2 *275:ZN 6.69582e-05
3 *76:2 0.000532325
4 *76:3 0.000559539
5 *76:4 0.00114036
6 *76:5 5.70746e-05
7 *76:6 2.41523e-05
8 *76:7 0.000153075
9 *76:8 0.000180272
10 *76:9 0.00114036
11 *76:10 0.000338967
12 *76:11 7.53976e-05
13 *76:12 0.000311752

*RES
1 *76:11 *316:REN 1.27389
2 *76:10 *76:11 1.57858
3 *76:10 *76:12 6.36943
4 *76:7 *76:12 0.318558
5 *76:7 *76:8 2.9724
6 *76:9 *76:8 1.57858
7 *76:4 *76:9 22.7171097
8 *76:5 *275:ZN 1.57858
9 *76:3 *76:4 1.57858
10 *76:5 *76:6 0.212141
11 *76:2 *76:3 10.8279
12 *76:2 *76:6 0.318558
*END

*D_NET *77 0.00440766

*CONN
*I *276:ZN O *C 173.7 135 *L 0 *D INVD1
*I *275:I I *C 172.1 135.4 *L 0.00302 *D INVD3
*I *274:I I *C 172.1 171.2 *L 0.00734 *D CKND8

*CAP
1 *276:ZN 6.07177e-05
2 *275:I 2.95822e-05
3 *274:I 6.69542e-05
4 *77:5 5.42929e-05
5 *77:6 0.000102891
6 *77:7 0.000522408
7 *77:8 0.000455712
8 *77:9 0.00146991
9 *77:10 0.000102891
10 *77:11 0.0015423

*RES
1 *77:8 *274:I 1.57858
2 *77:7 *77:8 8.4924
3 *77:7 *77:11 2.54781
4 *77:4 *77:9 0.689371
5 *77:9 *77:11 29.2987022
6 *77:9 *276:ZN 1.57858
7 *77:10 *77:9 1.57858
8 *77:6 *77:10 1.69839
9 *77:5 *275:I 3.15716
10 *77:5 *77:6 1.57858
11 *77:3 *77:5 0.689371
*END

*D_NET *78 0.00631696

*CONN
*I *316:OEN I *C 195.5 132.2 *L 0.0874 *D PDDW16DGZ
*I *277:ZN O *C 173.7 131.6 *L 0 *D INVD4
*I *276:I I *C 173.3 135.4 *L 0.00107 *D INVD1

*CAP
1 *316:OEN 2.84627e-05
2 *277:ZN 6.07258e-05
3 *276:I 2.95881e-05
4 *78:3 0.00089619
5 *78:4 0.000894934
6 *78:5 9.50767e-05
7 *78:6 6.30909e-05
8 *78:7 0.000104276
9 *78:8 0.000131483
10 *78:9 0.000138415
11 *78:10 0.000122822
12 *78:11 8.88459e-05
13 *78:12 0.00106894
14 *78:13 0.00052001
15 *78:14 0.00052001
16 *78:15 0.00011341
17 *78:16 0.00011341
18 *78:17 0.00106894
19 *78:18 4.39907e-05
20 *78:19 4.39907e-05
21 *78:20 4.39907e-05
22 *78:21 4.39907e-05
23 *78:22 3.40736e-05
24 *78:23 4.82968e-05

*RES
1 *78:23 *316:OEN 0.637055
2 *78:22 *78:23 0.424703
3 *78:21 *78:22 0.318364
4 *78:20 *78:21 0.637055
5 *78:16 *78:20 0.318364
6 *78:15 *78:16 2.12319
7 *78:15 *78:19 0.318364
8 *78:18 *78:19 0.637055
9 *78:14 *78:18 0.318364
10 *78:13 *78:14 10.8276
11 *78:13 *78:7 0.318364
12 *78:8 *78:7 1.61963
13 *78:17 *78:8 1.57873
14 *78:12 *78:17 21.4432526
15 *78:4 *78:12 1.57873
16 *78:4 *78:3 16.5601
17 *78:6 *78:3 0.955418
18 *78:6 *78:5 0.424703
19 *78:5 *277:ZN 1.57873
20 *78:10 *276:I 3.15713
21 *78:5 *78:11 1.27378
22 *78:9 *78:10 2.33554
23 *78:9 *78:11 0.637055
*END

*D_NET *79 0.00479666

*CONN
*I *317:REN I *C 195.5 58.38 *L 0.0635 *D PDDW16DGZ
*I *317:OEN I *C 195.5 54.42 *L 0.0874 *D PDDW16DGZ
*I *278:ZN O *C 173.1 58.6 *L 0 *D CKND8

*CAP
1 *317:REN 5.69219e-05
2 *317:OEN 2.8461e-05
3 *278:ZN 6.072e-05
4 *79:3 0.000112766
5 *79:4 8.55487e-05
6 *79:5 7.18324e-05
7 *79:6 8.60629e-05
8 *79:7 0.000108072
9 *79:8 0.000108072
10 *79:9 0.000112417
11 *79:10 0.000125387
12 *79:11 0.00021145
13 *79:12 0.00021145
14 *79:13 0.00108694
15 *79:14 0.000291907
16 *79:15 0.000291907
17 *79:16 4.39851e-05
18 *79:17 4.39851e-05
19 *79:18 7.37232e-05
20 *79:19 0.00010094
21 *79:20 0.00108694
22 *79:21 0.000107807
23 *79:22 0.000107807
24 *79:23 9.78719e-05
25 *79:24 8.3658e-05

*RES
1 *79:21 *317:OEN 0.63699
2 *79:21 *79:22 1.69842
3 *79:22 *317:REN 0.63699
4 *79:23 *317:REN 0.63699
5 *79:23 *79:24 1.4862
6 *79:16 *79:24 0.318328
7 *79:16 *79:17 0.63699
8 *79:14 *79:17 0.318328
9 *79:14 *79:15 5.94479
10 *79:15 *79:18 0.318328
11 *79:18 *79:19 1.27398
12 *79:20 *79:19 1.57863
13 *79:13 *79:20 21.8678722
14 *79:3 *79:13 1.57863
15 *79:4 *79:3 1.30535
16 *79:12 *79:4 0.318328
17 *79:11 *79:12 4.03382
18 *79:7 *79:11 0.318328
19 *79:8 *79:7 2.57732
20 *79:8 *79:5 0.318328
21 *79:6 *79:5 1.06543
22 *79:9 *79:6 0.63699
23 *79:10 *79:9 2.01141
24 *278:ZN *79:10 1.57863
*END

*D_NET *80 0.00821465

*CONN
*I *279:ZN O *C 173.1 112.6 *L 0 *D INVD1
*I *278:I I *C 172.1 58.4 *L 0.00734 *D CKND8
*I *277:I I *C 173.1 131.8 *L 0.00394 *D INVD4

*CAP
1 *279:ZN 4.01059e-05
2 *278:I 6.69447e-05
3 *277:I 6.07371e-05
4 *80:3 0.00199419
5 *80:4 0.00108441
6 *80:5 0.000515535
7 *80:6 0.000582236
8 *80:7 0.000103186
9 *80:8 0.000101938
10 *80:9 8.71498e-05
11 *80:10 8.71498e-05
12 *80:11 0.00129845
13 *80:12 0.00119883
14 *80:13 5.56858e-05
15 *80:14 0.000938108

*RES
1 *80:8 *277:I 1.57878
2 *80:7 *80:8 2.76775
3 *80:7 *80:14 0.955476
4 *279:ZN *80:13 0.804453
5 *80:3 *80:14 18.0463
6 *80:3 *80:13 1.57878
7 *80:4 *80:3 21.5172
8 *80:10 *80:4 0.318618
9 *80:9 *80:10 2.98808
10 *80:9 *80:12 0.318618
11 *80:11 *80:12 24.6819382
12 *80:6 *80:11 2.54781
13 *80:5 *80:6 9.76642
14 *278:I *80:5 1.57878
*END

*D_NET *81 0.000358229

*CONN
*I *279:I I *C 172.7 112.2 *L 0.00107 *D INVD1
*I *280:ZN O *C 172.5 113.4 *L 0 *D TIEL

*CAP
1 *279:I 6.072e-05
2 *280:ZN 6.69496e-05
3 *81:2 4.53096e-05
4 *81:3 7.824e-05
5 *81:4 6.71096e-05
6 *81:5 3.99002e-05

*RES
1 *81:4 *279:I 1.57861495
2 *81:4 *81:5 0.685922861
3 *81:3 *280:ZN 1.57861495
4 *81:2 *81:5 0.318464
5 *81:2 *81:3 0.636928
*END

*D_NET *82 0.000227709

*CONN
*I *273:I I *C 172.7 -96.6 *L 0.00183 *D CKND2
*I *281:ZN O *C 172.9 -95.4 *L 0 *D TIEL

*CAP
1 *273:I 2.95798e-05
2 *281:ZN 6.69508e-05
3 *82:2 4.84395e-05
4 *82:3 8.274e-05

*RES
1 *82:3 *281:ZN 1.57861
2 *82:2 *82:3 1.49348879
3 *273:I *82:2 3.1572299
*END

*D_NET *83 2.336e-05

*CONN
*I *265:I I *C 151.7 173.4 *L 0.00107 *D INVD1
*I *282:Z O *C 151.5 173.2 *L 0 *D TIEH

*CAP
1 *265:I 1.168e-05
2 *282:Z 1.168e-05

*RES
1 *282:Z *265:I 0.251541
*END

*D_NET *84 0.0157234

*CONN
*I *259:I I *C 45.7 153.4 *L 0.00203 *D INVD2
*I *260:I I *C 45.7 0.6 *L 0.00184 *D CKBD4
*I *283:Z O *C 45.5 0.4 *L 0 *D TIEH

*CAP
1 *259:I 6.07545e-05
2 *260:I 2.95868e-05
3 *283:Z 6.69654e-05
4 *84:3 2.28112e-05
5 *84:4 3.8395e-05
6 *84:5 0.00737343
7 *84:6 0.00740064
8 *84:7 4.83326e-05
9 *84:8 0.000351202
10 *84:9 0.000331326

*RES
1 *84:6 *259:I 1.57912
2 *84:5 *84:6 155.622818
3 *84:5 *84:9 0.318199
4 *84:8 *260:I 3.15824
5 *84:8 *84:9 6.58243
6 *84:7 *84:8 0.425056
7 *84:4 *84:7 0.636397
8 *84:3 *84:4 0.211341
9 *283:Z *84:3 1.57912
*END

*D_NET *85 2.336e-05

*CONN
*I *250:I I *C -85.5 173.4 *L 0.00203 *D INVD2
*I *284:Z O *C -85.7 173.2 *L 0 *D TIEH

*CAP
1 *250:I 1.168e-05
2 *284:Z 1.168e-05

*RES
1 *284:Z *250:I 0.251541
*END

*D_NET *86 0.000378239

*CONN
*I *243:I I *C -174.3 157 *L 0.00107 *D INVD1
*I *285:Z O *C -172.9 157.2 *L 0 *D TIEH

*CAP
1 *243:I 2.95801e-05
2 *285:Z 6.07194e-05
3 *86:2 3.28099e-05
4 *86:3 2.57193e-05
5 *86:4 9.68704e-05
6 *86:5 0.00013254

*RES
1 *86:5 *285:Z 1.57861
2 *86:4 *86:5 1.91078508
3 *86:3 *86:4 0.21308
4 *86:2 *86:3 0.31844
5 *243:I *86:2 3.1572299
*END

*D_NET *87 0.00041096

*CONN
*I *232:I I *C -174.3 34.6 *L 0.00107 *D INVD1
*I *286:Z O *C -172.9 34.8 *L 0 *D TIEH

*CAP
1 *232:I 2.95802e-05
2 *286:Z 6.07191e-05
3 *87:2 4.35685e-05
4 *87:3 0.00013032
5 *87:4 0.00014677

*RES
1 *87:4 *286:Z 1.57861
2 *87:3 *87:4 2.22922516
3 *87:2 *87:3 0.539807
4 *232:I *87:2 3.1572299
*END

*D_NET *88 2.336e-05

*CONN
*I *225:I I *C -173.7 -111 *L 0.00107 *D INVD1
*I *287:Z O *C -173.9 -111.2 *L 0 *D TIEH

*CAP
1 *225:I 1.168e-05
2 *287:Z 1.168e-05

*RES
1 *287:Z *225:I 0.251541
*END

*D_NET *89 0.0106891

*CONN
*I *322:I I *C 195.5 -192.615 *L 0.0897 *D PDDW16DGZ
*I *288:Z O *C 170.3 -114.2 *L 0 *D CKBD4

*CAP
1 *322:I 5.69051e-05
2 *288:Z 6.07091e-05
3 *89:2 0.000174859
4 *89:3 0.00017622
5 *89:4 0.000499157
6 *89:5 0.000123119
7 *89:6 0.000499157
8 *89:7 0.00012448
9 *89:8 0.00202678
10 *89:9 0.000971933
11 *89:10 0.00202678
12 *89:11 0.00149626
13 *89:12 0.000971933
14 *89:13 0.00148077

*RES
1 *89:11 *322:I 1.27384
2 *89:11 *89:13 29.2984
3 *89:12 *89:13 1.5789
4 *89:9 *89:12 19.5327
5 *89:8 *89:9 1.5789
6 *89:8 *89:10 41.8249588
7 *89:2 *89:10 1.5789
8 *89:3 *89:2 4.16041
9 *89:3 *89:7 0.318461
10 *89:5 *89:7 2.12329
11 *89:6 *288:Z 1.5789
12 *89:4 *89:5 1.5789
13 *89:4 *89:6 9.55383
*END

*D_NET *90 0.00735537

*CONN
*I *320:I I *C 195.5 -114.835 *L 0.0897 *D PDDW16DGZ
*I *289:Z O *C 168.5 -81 *L 0 *D CKBD4

*CAP
1 *320:I 2.84415e-05
2 *289:Z 6.07213e-05
3 *90:2 0.00203467
4 *90:3 0.00206185
5 *90:4 0.000123834
6 *90:5 0.000108229
7 *90:7 5.43031e-05
8 *90:8 0.000372634
9 *90:9 3.28147e-05
10 *90:10 0.000401233
11 *90:11 0.00102402
12 *90:12 0.00105262

*RES
1 *90:4 *320:I 0.637213
2 *90:5 *90:4 1.91164
3 *90:12 *90:5 1.57843
4 *90:11 *90:12 20.5941
5 *90:3 *90:11 1.57843
6 *90:3 *90:2 39.0649376
7 *90:9 *90:2 0.318309
8 *90:10 *90:9 1.57843
9 *90:8 *90:10 7.00637
10 *90:7 *90:8 1.57843
11 *90:7 *289:Z 1.57843
12 *90:6 *90:7 0.374937
*END

*D_NET *91 0.00531877

*CONN
*I *321:I I *C 195.5 -153.725 *L 0.0897 *D PDDW16DGZ
*I *290:Z O *C 166.7 -135.8 *L 0 *D CKBD4

*CAP
1 *321:I 2.08249e-05
2 *290:Z 6.07273e-05
3 *91:2 0.000900234
4 *91:3 0.00153886
5 *91:4 0.000901503
6 *91:5 0.000132825
7 *91:6 0.00013158
8 *91:7 0.00156869
9 *91:8 6.35279e-05

*RES
1 *91:8 *321:I 0.42481
2 *91:6 *290:Z 1.57879
3 *91:7 *91:8 0.955243
4 *91:5 *91:6 1.91095
5 *91:3 *91:7 30.3602505
6 *91:4 *91:5 0.955243
7 *91:2 *91:3 1.57879
8 *91:2 *91:4 18.0463
*END

*D_NET *92 0.0132942

*CONN
*I *330:D I *C 13.7 -8.6 *L 0.000906 *D DFQD2
*I *291:Z O *C -21.3 80.2 *L 0 *D CKBD1

*CAP
1 *330:D 3.89288e-05
2 *291:Z 4.04741e-05
3 *92:2 7.0785e-05
4 *92:3 0.000859405
5 *92:4 8.43358e-05
6 *92:5 0.000859405
7 *92:6 6.25832e-05
8 *92:7 0.00389496
9 *92:8 6.95964e-05
10 *92:9 0.00389496
11 *92:10 0.00110094
12 *92:11 6.21672e-05
13 *92:12 0.000564973
14 *92:13 0.00110142
15 *92:14 0.000589281

*RES
1 *92:12 *330:D 3.15774
2 *92:12 *92:14 11.4646
3 *92:13 *92:14 1.57825
4 *92:10 *92:13 23.3933
5 *92:10 *92:11 0.405729
6 *92:6 *92:11 1.00998
7 *92:7 *92:6 1.57825
8 *92:7 *92:9 81.3145142
9 *92:8 *92:9 1.57825
10 *92:4 *92:8 1.07202
11 *92:4 *92:5 0.811458
12 *92:3 *92:5 17.8595
13 *92:2 *92:3 0.811458
14 *291:Z *92:2 0.804013
*END

*D_NET *93 0.0115568

*CONN
*I *332:D I *C 13.5 15 *L 0.000908 *D DFQD4
*I *292:Z O *C -27.9 77.4 *L 0 *D CKBD1

*CAP
1 *332:D 2.95779e-05
2 *292:Z 6.69621e-05
3 *93:3 5.42895e-05
4 *93:4 0.0010591
5 *93:5 0.0013965
6 *93:6 6.81026e-05
7 *93:7 0.00141249
8 *93:8 0.00141386
9 *93:9 4.53173e-05
10 *93:10 7.25127e-05
11 *93:11 0.0010591
12 *93:12 9.43096e-05
13 *93:13 9.43096e-05
14 *93:14 0.00163241
15 *93:15 0.00139693
16 *93:16 0.001661

*RES
1 *93:14 *332:D 3.15708
2 *93:14 *93:16 34.1818199
3 *93:15 *93:16 1.5788
4 *93:5 *93:15 29.4303
5 *93:5 *93:6 0.405784
6 *93:7 *93:6 1.5788
7 *93:7 *93:8 29.5111
8 *93:8 *93:12 0.318681
9 *93:12 *93:13 1.69824
10 *93:9 *93:13 0.318681
11 *93:9 *93:10 0.636841
12 *93:11 *93:10 1.5788
13 *93:4 *93:11 19.1078
14 *93:3 *93:4 1.5788
15 *93:3 *292:Z 1.5788
16 *93:2 *93:3 0.68952
*END

*D_NET *94 0.0139483

*CONN
*I *333:D I *C 13.7 -31.8 *L 0.000906 *D DFQD2
*I *293:Z O *C -10.3 76.6 *L 0 *D CKBD1

*CAP
1 *333:D 2.9561e-05
2 *293:Z 6.69817e-05
3 *94:3 5.43226e-05
4 *94:4 0.000541835
5 *94:5 0.000820682
6 *94:6 0.0045583
7 *94:7 0.0045583
8 *94:8 0.000541835
9 *94:9 6.21823e-05
10 *94:10 0.000820264
11 *94:11 0.000901435
12 *94:12 6.25997e-05
13 *94:13 0.000930023

*RES
1 *94:11 *333:D 3.15762
2 *94:11 *94:13 18.6833
3 *94:12 *94:13 1.57881
4 *94:9 *94:12 1.01026
5 *94:9 *94:10 0.405272
6 *94:5 *94:10 17.3567
7 *94:6 *94:5 1.57881
8 *94:6 *94:7 95.5392456
9 *94:8 *94:7 1.57881
10 *94:4 *94:8 9.97873
11 *94:3 *94:4 1.57881
12 *94:3 *293:Z 1.57881
13 *94:2 *94:3 0.689546
*END

*D_NET *95 0.00741191

*CONN
*I *331:D I *C 13.3 63.4 *L 0.000908 *D DFQD4
*I *294:Z O *C -37.7 77.4 *L 0 *D CKBD0

*CAP
1 *331:D 3.89114e-05
2 *294:Z 6.69242e-05
3 *95:2 0.00286846
4 *95:3 0.00286846
5 *95:5 5.43184e-05
6 *95:6 0.00074527
7 *95:7 0.000769562

*RES
1 *95:6 *331:D 3.15733
2 *95:6 *95:7 15.286
3 *95:2 *95:7 1.57867
4 *95:3 *95:2 54.1389084
5 *95:5 *95:3 1.57867
6 *95:5 *294:Z 1.57867
7 *95:4 *95:5 0.688963
*END

*D_NET *96 0.0157551

*CONN
*I *329:D I *C 13.1 -98.6 *L 0.000906 *D DFQD1
*I *295:ZN O *C -9.9 29.8 *L 0 *D INVD1

*CAP
1 *329:D 3.89515e-05
2 *295:ZN 6.69545e-05
3 *96:2 0.00135704
4 *96:3 6.81126e-05
5 *96:4 0.00341526
6 *96:5 0.00344958
7 *96:6 0.00298874
8 *96:7 0.00135746
9 *96:8 0.00301301

*RES
1 *96:6 *329:D 3.15738
2 *96:5 *295:ZN 1.57814
3 *96:6 *96:8 62.8434
4 *96:4 *96:5 71.9729004
5 *96:7 *96:8 1.57814
6 *96:3 *96:4 1.57814
7 *96:2 *96:7 28.9271
8 *96:2 *96:3 0.406341
*END

*D_NET *97 0.00821223

*CONN
*I *296:ZN O *C -23.7 94.4 *L 0 *D CKND0
*I *295:I I *C -10.3 29.4 *L 0.00107 *D INVD1

*CAP
1 *296:ZN 6.69682e-05
2 *295:I 0.000781782
3 *97:2 0.000797379
4 *97:3 0.00329734
5 *97:4 0.00326876

*RES
1 *97:4 *296:ZN 1.579
2 *97:3 *97:4 68.5759506
3 *97:2 *295:I 16.8531
4 *97:2 *97:3 1.579
*END

*D_NET *98 0.00819022

*CONN
*I *326:D I *C 13.1 51 *L 0.000908 *D DFQD4
*I *297:Z O *C -33.1 76.6 *L 0 *D CKBD0

*CAP
1 *326:D 2.95629e-05
2 *297:Z 6.69537e-05
3 *98:2 0.00272874
4 *98:3 0.000840295
5 *98:4 0.000846041
6 *98:5 0.00046064
7 *98:6 0.00272874
8 *98:7 0.000489245

*RES
1 *98:5 *326:D 3.15728
2 *98:5 *98:7 9.34152
3 *98:4 *297:Z 1.5782
4 *98:6 *98:7 1.5782
5 *98:3 *98:4 16.7724
6 *98:2 *98:6 58.1060867
7 *98:2 *98:3 1.5782
*END

*D_NET *99 1e-07

*CONN
*P *99 I *C -302.315 140 *L 0
*I *305:PAD B *C -302.315 140 *L 3.09 *D PDDW16DGZ

*CAP
1 *99 5e-08
2 *305:PAD 5e-08

*RES
1 *305:PAD *99 0.00146494
*END

*D_NET *100 1e-07

*CONN
*P *100 I *C -302.315 105 *L 0
*I *304:PAD B *C -302.315 105 *L 3.09 *D PDDW16DGZ

*CAP
1 *100 5e-08
2 *304:PAD 5e-08

*RES
1 *304:PAD *100 0.00146494
*END

*D_NET *101 1e-07

*CONN
*P *101 I *C -302.315 35 *L 0
*I *303:PAD B *C -302.315 35 *L 3.09 *D PDDW16DGZ

*CAP
1 *101 5e-08
2 *303:PAD 5e-08

*RES
1 *303:PAD *101 0.00146494
*END

*D_NET *102 1e-07

*CONN
*P *102 I *C -302.315 0 *L 0
*I *302:PAD B *C -302.315 0 *L 3.09 *D PDDW16DGZ

*CAP
1 *102 5e-08
2 *302:PAD 5e-08

*RES
1 *302:PAD *102 0.00146494
*END

*D_NET *103 1e-07

*CONN
*P *103 I *C -302.315 -35 *L 0
*I *301:PAD B *C -302.315 -35 *L 3.09 *D PDDW16DGZ

*CAP
1 *103 5e-08
2 *301:PAD 5e-08

*RES
1 *301:PAD *103 0.00146494
*END

*D_NET *104 1e-07

*CONN
*P *104 I *C -302.315 -105 *L 0
*I *300:PAD B *C -302.315 -105 *L 3.09 *D PDDW16DGZ

*CAP
1 *104 5e-08
2 *300:PAD 5e-08

*RES
1 *300:PAD *104 0.00146494
*END

*D_NET *105 1e-07

*CONN
*P *105 I *C -302.315 -140 *L 0
*I *299:PAD B *C -302.315 -140 *L 3.09 *D PDDW16DGZ

*CAP
1 *105 5e-08
2 *299:PAD 5e-08

*RES
1 *299:PAD *105 0.00146494
*END

*D_NET *106 1e-07

*CONN
*P *106 I *C -302.315 -175 *L 0
*I *298:PAD B *C -302.315 -175 *L 3.09 *D PDDW16DGZ

*CAP
1 *106 5e-08
2 *298:PAD 5e-08

*RES
1 *298:PAD *106 0.00146494
*END

*D_NET *107 1e-07

*CONN
*P *107 I *C 113.07 302.315 *L 0
*I *313:PAD B *C 113.07 302.315 *L 3.09 *D PDDW16DGZ

*CAP
1 *107 5e-08
2 *313:PAD 5e-08

*RES
1 *313:PAD *107 0.00146494
*END

*D_NET *108 1e-07

*CONN
*P *108 I *C 80.765 302.315 *L 0
*I *312:PAD B *C 80.765 302.315 *L 3.09 *D PDDW16DGZ

*CAP
1 *108 5e-08
2 *312:PAD 5e-08

*RES
1 *312:PAD *108 0.00146494
*END

*D_NET *109 1e-07

*CONN
*P *109 I *C 16.155 302.315 *L 0
*I *311:PAD B *C 16.155 302.315 *L 3.09 *D PDDW16DGZ

*CAP
1 *109 5e-08
2 *311:PAD 5e-08

*RES
1 *311:PAD *109 0.00146494
*END

*D_NET *110 1e-07

*CONN
*P *110 I *C -16.15 302.315 *L 0
*I *310:PAD B *C -16.15 302.315 *L 3.09 *D PDDW16DGZ

*CAP
1 *110 5e-08
2 *310:PAD 5e-08

*RES
1 *310:PAD *110 0.00146494
*END

*D_NET *111 1e-07

*CONN
*P *111 I *C -48.455 302.315 *L 0
*I *309:PAD B *C -48.455 302.315 *L 3.09 *D PDDW16DGZ

*CAP
1 *111 5e-08
2 *309:PAD 5e-08

*RES
1 *309:PAD *111 0.00146494
*END

*D_NET *112 1e-07

*CONN
*P *112 I *C -113.07 302.315 *L 0
*I *308:PAD B *C -113.07 302.315 *L 3.09 *D PDDW16DGZ

*CAP
1 *112 5e-08
2 *308:PAD 5e-08

*RES
1 *308:PAD *112 0.00146494
*END

*D_NET *113 1e-07

*CONN
*P *113 I *C -145.38 302.315 *L 0
*I *307:PAD B *C -145.38 302.315 *L 3.09 *D PDDW16DGZ

*CAP
1 *113 5e-08
2 *307:PAD 5e-08

*RES
1 *307:PAD *113 0.00146494
*END

*D_NET *114 1e-07

*CONN
*P *114 I *C -177.69 302.315 *L 0
*I *306:PAD B *C -177.69 302.315 *L 3.09 *D PDDW16DGZ

*CAP
1 *114 5e-08
2 *306:PAD 5e-08

*RES
1 *306:PAD *114 0.00146494
*END

*D_NET *115 1e-07

*CONN
*P *115 I *C 177.69 302.315 *L 0
*I *325:PAD B *C 177.69 302.315 *L 3.09 *D PDDW16DGZ

*CAP
1 *115 5e-08
2 *325:PAD 5e-08

*RES
1 *325:PAD *115 0.00146494
*END

*D_NET *116 1e-07

*CONN
*P *116 I *C 145.38 302.315 *L 0
*I *324:PAD B *C 145.38 302.315 *L 3.09 *D PDDW16DGZ

*CAP
1 *116 5e-08
2 *324:PAD 5e-08

*RES
1 *324:PAD *116 0.00146494
*END

*D_NET *117 1e-07

*CONN
*P *117 I *C -22.5 -302.315 *L 0
*I *314:XIN I *C -22.5 -302.315 *L 2.72 *D PDXOE3DG

*CAP
1 *117 5e-08
2 *314:XIN 5e-08

*RES
1 *314:XIN *117 0.00146494
*END

*D_NET *118 1e-07

*CONN
*P *118 I *C -302.315 175 *L 0
*I *323:PAD B *C -302.315 175 *L 3.09 *D PDDW16DGZ

*CAP
1 *118 5e-08
2 *323:PAD 5e-08

*RES
1 *323:PAD *118 0.00146494
*END

*D_NET *119 1e-07

*CONN
*P *119 O *C 302.315 -180 *L 0.01
*I *322:PAD B *C 302.315 -180 *L 3.09 *D PDDW16DGZ

*CAP
1 *119 5e-08
2 *322:PAD 5e-08

*RES
1 *322:PAD *119 0.00146494
*END

*D_NET *120 1e-07

*CONN
*P *120 O *C 302.315 -141.11 *L 0.01
*I *321:PAD B *C 302.315 -141.11 *L 3.09 *D PDDW16DGZ

*CAP
1 *120 5e-08
2 *321:PAD 5e-08

*RES
1 *321:PAD *120 0.00146494
*END

*D_NET *121 1e-07

*CONN
*P *121 O *C 302.315 -102.22 *L 0.01
*I *320:PAD B *C 302.315 -102.22 *L 3.09 *D PDDW16DGZ

*CAP
1 *121 5e-08
2 *320:PAD 5e-08

*RES
1 *320:PAD *121 0.00146494
*END

*D_NET *122 1e-07

*CONN
*P *122 O *C 302.315 -24.44 *L 0.01
*I *319:PAD B *C 302.315 -24.44 *L 3.09 *D PDDW16DGZ

*CAP
1 *122 5e-08
2 *319:PAD 5e-08

*RES
1 *319:PAD *122 0.00146494
*END

*D_NET *123 1e-07

*CONN
*P *123 O *C 302.315 14.445 *L 0.01
*I *318:PAD B *C 302.315 14.445 *L 3.09 *D PDDW16DGZ

*CAP
1 *123 5e-08
2 *318:PAD 5e-08

*RES
1 *318:PAD *123 0.00146494
*END

*D_NET *124 1e-07

*CONN
*P *124 O *C 302.315 53.33 *L 0.01
*I *317:PAD B *C 302.315 53.33 *L 3.09 *D PDDW16DGZ

*CAP
1 *124 5e-08
2 *317:PAD 5e-08

*RES
1 *317:PAD *124 0.00146494
*END

*D_NET *125 1e-07

*CONN
*P *125 O *C 302.315 131.11 *L 0.01
*I *316:PAD B *C 302.315 131.11 *L 3.09 *D PDDW16DGZ

*CAP
1 *125 5e-08
2 *316:PAD 5e-08

*RES
1 *316:PAD *125 0.00146494
*END

*D_NET *126 1e-07

*CONN
*P *126 O *C 302.315 170 *L 0.01
*I *315:PAD B *C 302.315 170 *L 3.09 *D PDDW16DGZ

*CAP
1 *126 5e-08
2 *315:PAD 5e-08

*RES
1 *315:PAD *126 0.00146494
*END

*D_NET *127 0.0228144

*CONN
*I *363:A1 I *C -24.1 95.8 *L 0.000687 *D NR2D0
*I *347:A2 I *C -24.9 97.8 *L 0.000921 *D AOI31D1
*I *340:B1 I *C -25.9 96.2 *L 0.000903 *D OAI221D0
*I *305:C O *C -195.5 127.75 *L 0 *D PDDW16DGZ

*CAP
1 *363:A1 2.95601e-05
2 *347:A2 2.95601e-05
3 *340:B1 2.95601e-05
4 *305:C 0.000574779
5 *127:4 8.17171e-05
6 *127:5 8.2374e-05
7 *127:6 2.43049e-05
8 *127:7 2.43049e-05
9 *127:8 4.05958e-05
10 *127:9 8.47388e-05
11 *127:10 0.000113379
12 *127:11 9.48549e-05
13 *127:12 0.000154501
14 *127:13 9.97159e-05
15 *127:14 7.63306e-05
16 *127:15 4.91354e-05
17 *127:16 0.00116572
18 *127:17 0.00116572
19 *127:20 0.000425665
20 *127:21 0.00860986
21 *127:22 0.000425665
22 *127:23 3.28445e-05
23 *127:24 0.000588968
24 *127:25 7.69875e-05
25 *127:26 4.97923e-05
26 *127:27 0.00860986
27 *127:28 5.13688e-05
28 *127:29 2.27284e-05

*RES
1 *305:C *127:24 11.6782
2 *127:23 *127:24 0.317479
3 *127:22 *127:23 1.57978
4 *127:20 *127:22 7.64236
5 *127:21 *127:20 1.57978
6 *127:21 *127:27 166.450607
7 *127:29 *363:A1 3.15701
8 *127:14 *127:27 1.57978
9 *127:19 *127:28 0.375896
10 *127:28 *127:29 0.213346
11 *127:15 *127:14 0.640038
12 *127:9 *127:28 1.57978
13 *127:16 *127:15 0.317479
14 *127:10 *127:9 2.18426
15 *127:17 *127:16 21.868
16 *127:8 *127:10 1.57978
17 *127:17 *127:26 0.317479
18 *127:5 *340:B1 3.15701
19 *127:8 *127:5 0.782269
20 *127:25 *127:26 0.640038
21 *127:5 *127:4 1.54422
22 *127:13 *127:25 1.57978
23 *127:12 *127:4 1.57978
24 *127:13 *127:12 1.49088
25 *127:6 *347:A2 3.15701
26 *127:12 *127:11 1.11499
27 *127:7 *127:6 0.213346
28 *127:7 *127:11 1.57978
29 *127:18 *127:7 0.375896
*END

*D_NET *128 0.0188449

*CONN
*I *368:A2 I *C -27.5 92.2 *L 0.000708 *D NR2D0
*I *356:A2 I *C -30.3 92.2 *L 0.00103 *D NR2D1
*I *345:A3 I *C -30.5 90.6 *L 0.000959 *D AOI31D1
*I *304:C O *C -195.5 92.75 *L 0 *D PDDW16DGZ

*CAP
1 *368:A2 0.000111432
2 *356:A2 6.69386e-05
3 *345:A3 2.95745e-05
4 *304:C 0.00863825
5 *128:4 6.31098e-05
6 *128:5 9.28163e-05
7 *128:6 0.000128596
8 *128:7 5.09631e-05
9 *128:8 0.000158171
10 *128:9 0.00865251
11 *128:10 0.000356214
12 *128:11 2.90463e-05
13 *128:12 3.04987e-05
14 *128:13 5.91489e-05
15 *128:14 0.000354894
16 *128:15 2.2841e-05

*RES
1 *128:11 *345:A3 3.15729
2 *128:8 *368:A2 2.35063
3 *128:11 *128:12 0.472694
4 *128:4 *128:8 1.57736
5 *128:12 *128:7 0.318555
6 *128:5 *128:4 0.526643
7 *128:7 *128:6 0.899147
8 *128:6 *128:5 1.59277
9 *128:15 *356:A2 1.57736
10 *128:6 *128:13 0.423883
11 *128:13 *128:15 0.213226
12 *128:14 *128:13 1.57736
13 *128:10 *128:14 6.58175
14 *128:9 *128:10 0.318555
15 *304:C *128:9 168.361389
*END

*D_NET *129 0.0267376

*CONN
*I *366:A2 I *C -27.5 85 *L 0.000708 *D NR2D0
*I *353:A2 I *C -26.1 87 *L 0.00103 *D NR2D1
*I *342:A3 I *C -26.1 85 *L 0.000959 *D AOI31D1
*I *303:C O *C -195.5 22.75 *L 0 *D PDDW16DGZ

*CAP
1 *366:A2 6.69426e-05
2 *353:A2 6.69426e-05
3 *342:A3 2.95724e-05
4 *303:C 5.6938e-05
5 *129:4 0.000590272
6 *129:5 0.000590272
7 *129:6 9.6515e-05
8 *129:7 7.37104e-05
9 *129:8 0.000138446
10 *129:9 0.000138446
11 *129:10 0.00964194
12 *129:11 0.00964194
13 *129:12 0.000127264
14 *129:13 0.000127264
15 *129:14 9.60737e-05
16 *129:15 0.00012491
17 *129:17 0.000394888
18 *129:18 0.000352074
19 *129:19 0.000777858
20 *129:20 0.000777858
21 *129:21 0.000124028
22 *129:22 0.000151246
23 *129:23 0.00123733
24 *129:24 5.42897e-05
25 *129:25 0.00120879
26 *129:26 5.13472e-05

*RES
1 *303:C *129:17 1.27255
2 *129:17 *129:18 7.21925
3 *129:18 *129:13 0.318814
4 *129:13 *129:12 2.33437
5 *129:19 *129:12 0.318814
6 *129:19 *129:20 16.3487
7 *129:20 *129:9 0.318814
8 *129:6 *353:A2 1.57786
9 *129:9 *129:8 2.54781
10 *129:7 *342:A3 3.15842
11 *129:7 *129:6 2.00475
12 *129:21 *129:8 0.318814
13 *129:26 *129:7 0.213443
14 *129:21 *129:22 2.33437
15 *129:14 *129:26 1.57786
16 *129:11 *129:22 1.57786
17 *129:15 *129:14 1.486
18 *129:11 *129:10 177.066071
19 *129:4 *366:A2 1.57786
20 *129:4 *129:15 1.57786
21 *129:23 *129:10 1.57786
22 *129:5 *129:4 11.272
23 *129:23 *129:25 23.5652
24 *129:24 *129:5 1.57786
25 *129:24 *129:25 1.57786
26 *129:16 *129:24 0.688963
*END

*D_NET *130 0.0300035

*CONN
*I *361:A2 I *C -31.5 81.4 *L 0.000708 *D NR2D0
*I *350:A2 I *C -30.9 85 *L 0.00103 *D NR2D1
*I *343:A3 I *C -31.5 83.4 *L 0.000959 *D AOI31D1
*I *302:C O *C -195.5 -12.25 *L 0 *D PDDW16DGZ

*CAP
1 *361:A2 6.69535e-05
2 *350:A2 6.01302e-05
3 *343:A3 2.95676e-05
4 *302:C 0.00930313
5 *130:4 5.13168e-05
6 *130:5 8.41539e-05
7 *130:6 7.26396e-05
8 *130:7 5.28805e-05
9 *130:8 0.000114006
10 *130:9 0.0001295
11 *130:10 0.00931592
12 *130:11 0.00522209
13 *130:12 8.6144e-05
14 *130:13 0.00522209
15 *130:14 0.000106756
16 *130:15 8.6144e-05

*RES
1 *130:14 *350:A2 1.25848
2 *130:8 *130:14 1.57901
3 *130:9 *130:8 1.87589
4 *130:9 *130:4 0.635807
5 *130:5 *343:A3 3.15802
6 *130:5 *130:4 0.425623
7 *130:6 *361:A2 1.57901
8 *130:6 *130:5 2.00463
9 *130:7 *130:6 0.212812
10 *130:15 *130:7 1.57901
11 *130:12 *130:15 1.48705
12 *130:13 *130:12 1.57901
13 *130:11 *130:13 100.634
14 *130:10 *130:11 1.57901
15 *302:C *130:10 172.182953
*END

*D_NET *131 0.0325376

*CONN
*I *362:A1 I *C -33.7 85 *L 0.000687 *D NR2D0
*I *344:A2 I *C -35.5 85 *L 0.000921 *D AOI31D1
*I *341:B1 I *C -34.9 83 *L 0.000903 *D OAI221D0
*I *301:C O *C -195.5 -47.25 *L 0 *D PDDW16DGZ

*CAP
1 *362:A1 2.96277e-05
2 *344:A2 6.6927e-05
3 *341:B1 2.96277e-05
4 *301:C 2.84373e-05
5 *131:4 5.31712e-05
6 *131:5 8.65024e-05
7 *131:6 4.61611e-05
8 *131:7 4.61611e-05
9 *131:8 0.000102639
10 *131:9 0.000102639
11 *131:10 0.00010621
12 *131:11 8.59734e-05
13 *131:12 0.000117188
14 *131:13 8.86187e-05
15 *131:14 3.5712e-05
16 *131:15 6.56043e-05
17 *131:16 3.88864e-05
18 *131:17 2.46016e-05
19 *131:18 4.54998e-05
20 *131:19 4.54998e-05
21 *131:20 7.67147e-05
22 *131:21 0.000103962
23 *131:22 0.0086681
24 *131:23 0.00133126
25 *131:24 0.00133126
26 *131:25 0.00555639
27 *131:26 0.0086681
28 *131:27 0.00555639

*RES
1 *131:6 *362:A1 3.1567
2 *131:7 *131:6 0.899723
3 *131:14 *344:A2 1.57963
4 *131:12 *131:7 1.57963
5 *131:15 *131:14 0.424301
6 *131:13 *131:12 1.27802
7 *131:15 *131:4 0.955956
8 *131:5 *131:13 1.57963
9 *131:5 *131:4 0.212151
10 *131:10 *341:B1 3.1567
11 *131:10 *131:5 1.79945
12 *131:11 *131:10 0.848603
13 *131:8 *131:11 1.57963
14 *131:9 *131:8 2.06272
15 *131:27 *131:9 1.57963
16 *131:25 *131:27 107.215
17 *131:26 *131:25 1.57963
18 *131:22 *131:26 167.512146
19 *131:21 *131:22 1.57963
20 *131:20 *131:21 1.2729
21 *131:20 *131:24 0.319504
22 *131:23 *131:24 26.7514
23 *131:19 *131:23 0.319504
24 *131:18 *131:19 0.636452
25 *131:17 *131:18 0.319504
26 *131:16 *131:17 0.212151
27 *301:C *131:16 0.636452
*END

*D_NET *132 0.0383534

*CONN
*I *364:A2 I *C -42.5 81.4 *L 0.000708 *D NR2D0
*I *357:A2 I *C -40.3 83.4 *L 0.00103 *D NR2D1
*I *346:A3 I *C -40.9 81.4 *L 0.000959 *D AOI31D1
*I *300:C O *C -195.5 -117.25 *L 0 *D PDDW16DGZ

*CAP
1 *364:A2 6.69114e-05
2 *357:A2 3.50549e-05
3 *346:A3 2.95536e-05
4 *300:C 4.27312e-05
5 *132:4 0.000129345
6 *132:5 0.000100815
7 *132:6 0.000312936
8 *132:7 0.000284534
9 *132:8 0.000108107
10 *132:9 0.0083844
11 *132:10 0.00013523
12 *132:11 0.00111997
13 *132:12 0.00111997
14 *132:13 0.000644422
15 *132:14 0.000682036
16 *132:15 0.000109259
17 *132:16 0.000121669
18 *132:17 0.00819825
19 *132:18 0.0083844
20 *132:19 0.00821373
21 *132:20 0.000130241

*RES
1 *132:5 *346:A3 3.1567
2 *132:5 *132:4 1.69976
3 *132:20 *132:4 1.57963
4 *132:20 *357:A2 0.75403
5 *132:15 *132:20 2.0116
6 *132:16 *132:15 1.57963
7 *132:14 *364:A2 1.57963
8 *132:14 *132:16 1.69721
9 *132:13 *132:14 12.315
10 *132:13 *132:19 1.2729
11 *132:17 *132:19 167.512146
12 *132:18 *132:17 1.57963
13 *132:9 *132:18 162.203
14 *132:10 *132:9 1.57963
15 *132:8 *132:10 1.91191
16 *132:8 *132:12 0.319504
17 *132:11 *132:12 22.5059
18 *132:7 *132:11 0.319504
19 *132:6 *132:7 5.67695
20 *300:C *132:6 0.955956
*END

*D_NET *133 0.0439679

*CONN
*I *367:A2 I *C -38.1 90.6 *L 0.000708 *D NR2D0
*I *354:A2 I *C -40.3 92.2 *L 0.00103 *D NR2D1
*I *348:A3 I *C -40.1 90.6 *L 0.000959 *D AOI31D1
*I *299:C O *C -195.5 -152.25 *L 0 *D PDDW16DGZ

*CAP
1 *367:A2 6.69224e-05
2 *354:A2 3.49862e-05
3 *348:A3 4.66483e-05
4 *299:C 4.27012e-05
5 *133:4 0.000284375
6 *133:5 0.000312903
7 *133:6 0.000139586
8 *133:7 0.000112494
9 *133:8 0.01175807
10 *133:10 0.00830825
11 *133:11 0.00100455
12 *133:12 0.00100455
13 *133:13 0.00830825
14 *133:14 0.011011
15 *133:15 7.5355e-05
16 *133:16 0.000829981
17 *133:17 6.22576e-05
18 *133:18 9.74232e-05
19 *133:19 0.000164704
20 *133:20 5.05955e-05
21 *133:21 9.74232e-05
22 *133:22 5.43632e-05
23 *133:23 0.000100653

*RES
1 *299:C *133:5 0.955678
2 *133:5 *133:4 5.67575
3 *133:4 *133:11 0.317479
4 *133:11 *133:12 20.1697
5 *133:7 *133:12 0.317479
6 *133:7 *133:6 3.7158
7 *133:10 *133:6 1.57768
8 *133:10 *133:13 161.778
9 *133:20 *354:A2 0.754823
10 *133:14 *133:13 1.57768
11 *133:17 *348:A3 1.00751
12 *133:21 *133:20 1.57768
13 *133:8 *133:16 15.2876
14 *133:14 *133:8 212.309448
15 *133:18 *133:17 1.57768
16 *133:18 *133:21 1.96643
17 *133:15 *133:16 1.57768
18 *133:19 *133:18 1.57768
19 *133:15 *133:19 1.27316
20 *133:19 *133:23 3.53439
21 *133:22 *367:A2 1.57768
22 *133:22 *133:23 1.57768
23 *133:9 *133:22 0.690032
*END

*D_NET *134 0.0467539

*CONN
*I *365:A2 I *C -36.5 95.8 *L 0.000708 *D NR2D0
*I *351:A2 I *C -40.3 94.2 *L 0.00103 *D NR2D1
*I *349:A3 I *C -40.9 95.8 *L 0.000959 *D AOI31D1
*I *298:C O *C -195.5 -187.25 *L 0 *D PDDW16DGZ

*CAP
1 *365:A2 6.69606e-05
2 *351:A2 3.50067e-05
3 *349:A3 2.95115e-05
4 *298:C 4.27408e-05
5 *134:4 9.24015e-05
6 *134:5 8.93486e-05
7 *134:6 2.60515e-05
8 *134:7 2.60515e-05
9 *134:8 0.000291452
10 *134:9 0.000262754
11 *134:10 0.01333818
12 *134:12 6.35006e-05
13 *134:13 3.50067e-05
14 *134:14 4.55902e-05
15 *134:15 0.000430868
16 *134:16 7.26593e-05
17 *134:17 0.000858683
18 *134:18 0.000858683
19 *134:19 0.010088
20 *134:20 0.000430868
21 *134:21 0.00333297
22 *134:22 0.00806743
23 *134:23 5.1289e-05
24 *134:24 0.00806743
25 *134:25 5.04748e-05

*RES
1 *298:C *134:12 0.955678
2 *134:12 *134:13 0.424386
3 *134:13 *134:17 0.317479
4 *134:17 *134:18 17.1957
5 *134:14 *134:18 0.317479
6 *134:14 *134:16 0.638198
7 *134:15 *134:16 1.57768
8 *134:15 *134:20 8.49095
9 *134:19 *134:20 1.57768
10 *134:10 *134:21 66.6642
11 *134:19 *134:10 212.309448
12 *134:22 *134:21 1.57768
13 *134:22 *134:24 154.561
14 *134:25 *351:A2 0.754823
15 *134:23 *134:24 1.57768
16 *134:5 *134:25 1.57768
17 *134:23 *134:5 0.213813
18 *134:4 *349:A3 3.1586
19 *134:5 *134:4 1.96643
20 *134:9 *134:4 1.57768
21 *134:6 *365:A2 1.57768
22 *134:9 *134:8 5.10235
23 *134:7 *134:6 0.213813
24 *134:7 *134:8 1.57768
25 *134:11 *134:7 0.375792
*END

*D_NET *135 0.0246417

*CONN
*I *363:A2 I *C -24.5 95.8 *L 0.000708 *D NR2D0
*I *355:A2 I *C -24.7 99.4 *L 0.00103 *D NR2D1
*I *347:A3 I *C -24.5 97.8 *L 0.000959 *D AOI31D1
*I *313:C O *C 100.82 195.5 *L 0 *D PDDW16DGZ

*CAP
1 *363:A2 6.69593e-05
2 *355:A2 6.69593e-05
3 *347:A3 2.95491e-05
4 *313:C 0.000198351
5 *135:4 5.12372e-05
6 *135:5 6.99774e-05
7 *135:6 8.6261e-05
8 *135:7 6.63277e-05
9 *135:8 0.000106265
10 *135:9 0.000106265
11 *135:10 0.000105563
12 *135:11 0.000105563
13 *135:12 0.000647905
14 *135:13 0.000647905
15 *135:14 6.25375e-05
16 *135:15 5.98002e-05
17 *135:16 8.52784e-05
18 *135:17 5.39044e-05
19 *135:18 6.89948e-05
20 *135:19 6.89948e-05
21 *135:20 0.00459977
22 *135:21 3.69189e-05
23 *135:22 0.00459850688
24 *135:23 0.00220622
25 *135:24 0.00220622
26 *135:25 0.00399973
27 *135:26 0.00400015
28 *135:27 0.000239762

*RES
1 *135:27 *313:C 4.24663
2 *135:26 *135:27 1.57867
3 *135:25 *135:26 88.0397
4 *135:25 *135:8 0.405353
5 *135:9 *135:8 2.01203
6 *135:12 *135:9 0.405353
7 *135:13 *135:12 13.8351
8 *135:13 *135:10 0.405353
9 *135:11 *135:10 2.01203
10 *135:5 *363:A2 1.57867
11 *135:24 *135:11 0.405353
12 *135:5 *135:4 0.424515
13 *135:23 *135:24 49.5533
14 *135:4 *135:18 0.636773
15 *135:21 *135:23 0.405353
16 *135:18 *135:19 0.84903
17 *135:22 *135:21 1.57867
18 *135:15 *135:19 0.636773
19 *135:20 *135:22 96.6007919
20 *135:16 *347:A3 3.15733
21 *135:15 *135:16 0.638247
22 *135:14 *135:20 0.955159
23 *135:16 *135:17 0.84903
24 *135:6 *355:A2 1.57867
25 *135:6 *135:14 0.424515
26 *135:7 *135:17 0.318386
27 *135:7 *135:6 1.06129
*END

*D_NET *136 0.0242008

*CONN
*I *368:A1 I *C -27.1 92.2 *L 0.000687 *D NR2D0
*I *345:A2 I *C -30.1 90.6 *L 0.000921 *D AOI31D1
*I *337:B1 I *C -27.1 90.4 *L 0.00103 *D OAI221D1
*I *312:C O *C 68.515 195.5 *L 0 *D PDDW16DGZ

*CAP
1 *368:A1 2.95765e-05
2 *345:A2 2.95765e-05
3 *337:B1 2.95765e-05
4 *312:C 0.000156371
5 *136:4 5.29402e-05
6 *136:5 9.17048e-05
7 *136:6 0.000107368
8 *136:7 0.00013607
9 *136:8 0.000164684
10 *136:11 5.43403e-05
11 *136:12 0.00529245
12 *136:13 0.000477162
13 *136:14 0.000548303
14 *136:15 0.00532106
15 *136:16 0.00573321
16 *136:17 0.00573461
17 *136:18 0.000241775

*RES
1 *136:18 *312:C 3.18463
2 *136:14 *136:18 1.91078
3 *136:13 *136:14 9.44646
4 *136:13 *136:17 0.319219
5 *136:16 *136:17 99.0729
6 *136:15 *136:16 1.57794
7 *136:12 *136:15 99.1485138
8 *136:4 *136:12 1.57794
9 *136:5 *368:A1 3.15739
10 *136:5 *136:4 0.213317
11 *136:6 *337:B1 3.15739
12 *136:10 *136:6 0.689876
13 *136:6 *136:5 2.26782
14 *136:7 *136:6 1.57794
15 *136:8 *136:7 3.6037
16 *136:11 *345:A2 3.15739
17 *136:11 *136:8 1.57794
18 *136:9 *136:11 0.689876
*END

*D_NET *137 0.0153535

*CONN
*I *366:A1 I *C -27.1 85 *L 0.000687 *D NR2D0
*I *342:A2 I *C -25.7 85 *L 0.000921 *D AOI31D1
*I *335:B1 I *C -26.1 83 *L 0.000903 *D OAI221D0
*I *311:C O *C 3.905 195.5 *L 0 *D PDDW16DGZ

*CAP
1 *366:A1 2.96055e-05
2 *342:A2 6.69527e-05
3 *335:B1 2.96055e-05
4 *311:C 4.27068e-05
5 *137:4 4.10053e-05
6 *137:5 5.32559e-05
7 *137:6 0.000211577
8 *137:7 0.000106342
9 *137:8 2.81593e-05
10 *137:9 0.000114849
11 *137:10 0.00154127
12 *137:11 0.00156986
13 *137:12 2.92652e-05
14 *137:13 3.26682e-05
15 *137:14 0.00557528
16 *137:15 0.00557528
17 *137:16 0.000137989
18 *137:17 0.000167765

*RES
1 *137:17 *311:C 0.956267
2 *137:16 *137:17 2.54703
3 *137:15 *137:16 1.57811
4 *137:14 *137:15 118.468666
5 *137:10 *137:14 1.57811
6 *137:11 *137:10 28.9537
7 *137:8 *342:A2 1.57811
8 *137:5 *137:11 1.57811
9 *137:9 *137:8 0.471807
10 *137:13 *366:A1 3.15803
11 *137:4 *335:B1 3.15803
12 *137:5 *137:4 0.213307
13 *137:6 *137:9 2.22888
14 *137:6 *137:13 0.424807
15 *137:4 *137:12 0.269346
16 *137:7 *137:6 1.61969
17 *137:7 *137:12 0.318153
*END

*D_NET *138 0.0122557

*CONN
*I *361:A1 I *C -31.1 81.4 *L 0.000687 *D NR2D0
*I *343:A2 I *C -31.1 83.4 *L 0.000921 *D AOI31D1
*I *336:B1 I *C -28.9 81.8 *L 0.000903 *D OAI221D0
*I *310:C O *C -28.4 195.5 *L 0 *D PDDW16DGZ

*CAP
1 *361:A1 2.96155e-05
2 *343:A2 2.96155e-05
3 *336:B1 2.96155e-05
4 *310:C 4.26361e-05
5 *138:4 0.000105952
6 *138:5 0.000114632
7 *138:6 0.000176842
8 *138:7 0.000148333
9 *138:9 0.00557716
10 *138:10 0.00557588313
11 *138:11 0.0001171
12 *138:12 3.58279e-05
13 *138:13 7.13155e-05
14 *138:14 0.000146886
15 *138:15 5.42951e-05

*RES
1 *138:14 *310:C 0.955027
2 *138:11 *138:14 2.12268
3 *138:10 *138:11 1.5785
4 *138:9 *138:10 118.091835
5 *138:9 *138:13 0.955027
6 *138:12 *361:A1 3.157
7 *138:4 *343:A2 3.157
8 *138:4 *138:13 0.782041
9 *138:12 *138:5 0.427059
10 *138:5 *138:4 1.58571
11 *138:7 *138:5 1.5785
12 *138:7 *138:6 2.33892
13 *138:15 *336:B1 3.157
14 *138:15 *138:6 1.5785
15 *138:8 *138:15 0.690142
*END

*D_NET *139 0.0174743

*CONN
*I *362:A2 I *C -33.3 85 *L 0.000708 *D NR2D0
*I *352:A2 I *C -37.9 85 *L 0.00103 *D NR2D1
*I *344:A3 I *C -35.9 85 *L 0.000959 *D AOI31D1
*I *309:C O *C -60.705 195.5 *L 0 *D PDDW16DGZ

*CAP
1 *362:A2 6.69073e-05
2 *352:A2 0.0001188
3 *344:A3 2.95593e-05
4 *309:C 0.000114671
5 *139:4 0.000125838
6 *139:5 0.000345704
7 *139:6 0.00146098
8 *139:10 0.000512831
9 *139:11 0.000541264
10 *139:12 0.00126974
11 *139:13 0.00613417
12 *139:14 0.00614975
13 *139:15 0.000171632
14 *139:16 5.28315e-05
15 *139:17 0.000165532
16 *139:18 2.43043e-05
17 *139:19 5.28315e-05
18 *139:20 2.43043e-05
19 *139:21 5.33945e-05
20 *139:22 5.91187e-05

*RES
1 *139:15 *309:C 2.33614
2 *139:11 *139:15 1.27456
3 *139:10 *139:11 10.4995
4 *139:22 *362:A2 1.57927
5 *139:10 *139:14 0.637278
6 *139:20 *344:A3 3.1569
7 *139:9 *139:21 0.375159
8 *139:21 *139:22 0.212972
9 *139:13 *139:14 107.364159
10 *139:8 *139:19 0.375159
11 *139:19 *139:20 0.212972
12 *139:4 *139:21 1.57927
13 *139:17 *352:A2 2.51471
14 *139:12 *139:13 1.57927
15 *139:5 *139:19 1.57927
16 *139:5 *139:4 3.13724
17 *139:18 *139:17 1.57927
18 *139:12 *139:6 23.7792
19 *139:6 *139:5 4.35118
20 *139:16 *139:18 0.212972
21 *139:16 *139:6 1.57927
22 *139:7 *139:16 0.375159
*END

*D_NET *140 0.0225864

*CONN
*I *364:A1 I *C -42.1 81.4 *L 0.000687 *D NR2D0
*I *346:A2 I *C -40.5 81.4 *L 0.000921 *D AOI31D1
*I *339:B1 I *C -37.7 81.8 *L 0.000903 *D OAI221D0
*I *308:C O *C -125.32 195.5 *L 0 *D PDDW16DGZ

*CAP
1 *364:A1 2.95435e-05
2 *346:A2 6.6925e-05
3 *339:B1 2.95435e-05
4 *308:C 4.27218e-05
5 *140:4 7.82945e-05
6 *140:5 5.10766e-05
7 *140:6 5.20241e-05
8 *140:7 0.00012093
9 *140:8 0.00511085
10 *140:9 0.000105254
11 *140:10 0.000105254
12 *140:11 2.90267e-05
13 *140:12 2.90267e-05
14 *140:16 0.0056447
15 *140:17 0.00504048
16 *140:18 0.0056447
17 *140:19 0.000106718
18 *140:20 0.00013652
19 *140:21 5.42635e-05
20 *140:22 5.71059e-05
21 *140:23 5.1335e-05

*RES
1 *140:11 *339:B1 3.15738
2 *140:15 *140:12 0.375225
3 *140:12 *140:11 0.270894
4 *140:4 *140:12 1.57778
5 *140:20 *308:C 0.955451
6 *140:5 *140:4 0.638798
7 *140:19 *140:20 1.9109
8 *140:9 *140:5 0.318484
9 *140:18 *140:19 1.57778
10 *140:22 *346:A2 1.57778
11 *140:14 *140:22 0.375225
12 *140:10 *140:9 1.69858
13 *140:16 *140:18 119.954834
14 *140:22 *140:23 0.212322
15 *140:10 *140:6 0.318484
16 *140:17 *140:16 1.57778
17 *140:7 *140:23 1.57778
18 *140:7 *140:6 0.638798
19 *140:17 *140:8 91.5055
20 *140:8 *140:7 1.88894
21 *140:21 *364:A1 3.15738
22 *140:21 *140:8 1.57778
23 *140:13 *140:21 0.690048
*END

*D_NET *141 0.0252558

*CONN
*I *367:A1 I *C -37.7 90.6 *L 0.000687 *D NR2D0
*I *348:A2 I *C -39.7 90.6 *L 0.000921 *D AOI31D1
*I *334:B1 I *C -37.5 88.8 *L 0.00103 *D OAI221D1
*I *307:C O *C -157.63 195.5 *L 0 *D PDDW16DGZ

*CAP
1 *367:A1 2.95438e-05
2 *348:A2 2.95438e-05
3 *334:B1 2.95438e-05
4 *307:C 4.26395e-05
5 *141:4 0.000139652
6 *141:5 0.000139652
7 *141:6 0.00528771
8 *141:7 0.00674594
9 *141:8 0.00528771
10 *141:9 9.62793e-05
11 *141:10 0.000126137
12 *141:11 0.000152119
13 *141:12 0.00686579
14 *141:13 0.000123623
15 *141:14 0.000159872

*RES
1 *141:4 *367:A1 3.15813
2 *141:13 *348:A2 3.15813
3 *141:5 *334:B1 3.15813
4 *141:5 *141:4 2.16021
5 *141:11 *141:13 2.14455
6 *141:14 *141:5 1.57906
7 *141:10 *307:C 0.954874
8 *141:12 *141:11 1.57906
9 *141:12 *141:14 2.12303
10 *141:9 *141:10 1.69842
11 *141:7 *141:12 128.234909
12 *141:8 *141:9 1.57906
13 *141:6 *141:7 1.57906
14 *141:6 *141:8 112.311
*END

*D_NET *142 0.0274756

*CONN
*I *365:A1 I *C -36.1 95.8 *L 0.000687 *D NR2D0
*I *349:A2 I *C -40.5 95.8 *L 0.000921 *D AOI31D1
*I *338:B1 I *C -37.5 96 *L 0.00103 *D OAI221D1
*I *306:C O *C -189.94 195.5 *L 0 *D PDDW16DGZ

*CAP
1 *365:A1 2.95597e-05
2 *349:A2 6.6994e-05
3 *338:B1 2.95597e-05
4 *306:C 0.000109153
5 *142:4 0.00793933
6 *142:5 0.000121994
7 *142:6 6.14212e-05
8 *142:7 0.00493999
9 *142:8 0.00495295
10 *142:9 0.007938
11 *142:10 0.000117512
12 *142:11 0.000218427
13 *142:12 0.000118723
14 *142:13 4.83374e-05
15 *142:14 7.32936e-05
16 *142:15 0.000298989
17 *142:16 0.000101763
18 *142:17 8.54082e-05
19 *142:18 0.000110122
20 *142:19 0.000113999

*RES
1 *142:17 *365:A1 3.15776
2 *142:14 *338:B1 3.15776
3 *142:17 *142:19 1.48671
4 *142:14 *142:16 1.27364
5 *142:18 *142:19 1.57768
6 *142:15 *142:16 1.57768
7 *142:15 *142:18 1.87694
8 *142:11 *142:15 4.02201
9 *142:10 *349:A2 1.57768
10 *142:12 *142:11 1.57768
11 *142:10 *142:12 1.48671
12 *142:12 *142:13 0.423747
13 *142:7 *142:13 0.636818
14 *142:7 *142:8 101.06
15 *142:5 *306:C 2.3366
16 *142:9 *142:8 1.57768
17 *142:6 *142:5 1.57768
18 *142:4 *142:9 156.896683
19 *142:4 *142:6 0.318409
*END

*D_NET *143 0.0192988

*CONN
*I *288:I I *C 169.1 -114.6 *L 0.00184 *D CKBD4
*I *329:Q O *C 15.7 -99 *L 0 *D DFQD1

*CAP
1 *288:I 2.96064e-05
2 *329:Q 6.07171e-05
3 *143:4 5.42898e-05
4 *143:5 0.004205
5 *143:6 0.000752263
6 *143:7 0.000779476
7 *143:8 0.004205
8 *143:9 0.000111725
9 *143:10 0.00448096
10 *143:11 8.45116e-05
11 *143:12 5.42898e-05
12 *143:13 0.00448096

*RES
1 *143:12 *288:I 3.15727
2 *143:3 *143:12 0.079616
3 *143:13 *143:12 1.57864
4 *143:10 *143:13 81.526825
5 *143:9 *143:10 1.57864
6 *143:9 *143:11 1.48658
7 *143:6 *143:11 0.318464
8 *143:6 *143:7 15.499
9 *143:8 *143:7 1.57864
10 *143:5 *143:8 81.3141
11 *143:4 *143:5 1.57864
12 *143:4 *329:Q 1.57864
13 *143:2 *143:4 0.689176
*END

*D_NET *144 0.0271906

*CONN
*I *290:I I *C 165.5 -136.2 *L 0.00184 *D CKBD4
*I *333:Q O *C 16.3 -31.4 *L 0 *D DFQD2

*CAP
1 *290:I 2.95557e-05
2 *333:Q 6.07732e-05
3 *144:2 0.000151577
4 *144:3 0.000151577
5 *144:5 5.42448e-05
6 *144:6 0.000416747
7 *144:7 0.000418053
8 *144:8 0.00777885
9 *144:9 0.00264589
10 *144:10 0.00264589
11 *144:11 0.00235484
12 *144:12 0.00238202
13 *144:13 0.00777743
14 *144:14 0.000160954
15 *144:15 0.00016226

*RES
1 *144:14 *290:I 3.15819
2 *144:14 *144:15 2.97214
3 *144:9 *144:15 0.319264
4 *144:9 *144:10 55.6255
5 *144:10 *144:3 0.319264
6 *144:3 *144:2 2.76083
7 *144:11 *144:2 0.319264
8 *144:11 *144:12 49.4676
9 *144:13 *144:12 1.57795
10 *144:8 *144:13 150.52739
11 *144:7 *144:8 0.319264
12 *144:6 *144:7 7.85528
13 *144:5 *144:6 1.57795
14 *144:5 *333:Q 1.57795
15 *144:4 *144:5 0.68906
*END

*D_NET *145 0.025278

*CONN
*I *289:I I *C 167.3 -80.6 *L 0.00184 *D CKBD4
*I *330:Q O *C 16.3 -9 *L 0 *D DFQD2

*CAP
1 *289:I 0.000130594
2 *330:Q 6.75624e-05
3 *145:2 0.00873314
4 *145:3 0.00354509
5 *145:4 8.30205e-05
6 *145:5 0.00354509
7 *145:6 0.000146185
8 *145:7 0.000128862
9 *145:8 3.69128e-05
10 *145:9 0.000128862
11 *145:10 0.00873274

*RES
1 *145:6 *289:I 2.76837
2 *145:7 *145:6 1.5799
3 *145:7 *145:9 1.69903
4 *145:8 *145:9 1.5799
5 *145:8 *145:10 0.405611
6 *145:2 *145:10 185.889175
7 *145:3 *145:2 1.5799
8 *145:3 *145:5 74.0964
9 *145:4 *145:5 1.5799
10 *330:Q *145:4 1.34164
*END

*D_NET *146 0.00011384

*CONN
*I *203:I I *C 17.1 15 *L 0.00203 *D BUFFD6
*I *332:Q O *C 16.3 15.2 *L 0 *D DFQD4

*CAP
1 *146:2 5.692e-05
2 *146:3 5.692e-05

*RES
1 *146:3 *203:I 1.57861495
2 *146:2 *146:3 1.27385676
3 *332:Q *146:2 1.57861495
*END

*D_NET *147 0.00011384

*CONN
*I *202:I I *C 16.7 51 *L 0.00203 *D BUFFD6
*I *326:Q O *C 15.9 51.2 *L 0 *D DFQD4

*CAP
1 *147:2 5.692e-05
2 *147:3 5.692e-05

*RES
1 *147:3 *202:I 1.57861495
2 *147:2 *147:3 1.27385676
3 *326:Q *147:2 1.57861495
*END

*D_NET *148 0.0182987

*CONN
*I *200:I I *C 172.7 63.4 *L 0.00184 *D CKBD4
*I *331:Q O *C 16.1 63.2 *L 0 *D DFQD4

*CAP
1 *200:I 2.9552e-05
2 *331:Q 6.0761e-05
3 *148:4 5.42706e-05
4 *148:5 0.00904994
5 *148:6 5.42706e-05
6 *148:7 0.00904994

*RES
1 *148:6 *200:I 3.15701
2 *148:3 *148:6 0.688295
3 *148:7 *148:6 1.57978
4 *148:5 *148:7 166.450607
5 *148:4 *148:5 1.57978
6 *148:4 *331:Q 1.57978
7 *148:2 *148:4 0.688295
*END

*D_NET *149 0.0171584

*CONN
*I *201:I I *C 172.7 88.6 *L 0.00184 *D CKBD4
*I *327:Q O *C 18.3 88.4 *L 0 *D DFQD4

*CAP
1 *201:I 2.96307e-05
2 *327:Q 6.06847e-05
3 *149:4 5.43445e-05
4 *149:5 0.00847968
5 *149:6 5.43445e-05
6 *149:7 0.00847968

*RES
1 *149:6 *201:I 3.1578
2 *149:3 *149:6 0.688655
3 *149:7 *149:6 1.57765
4 *149:5 *149:7 164.115204
5 *149:4 *149:5 1.57765
6 *149:4 *327:Q 1.57765
7 *149:2 *149:4 0.688655
*END

*D_NET *150 0.00011384

*CONN
*I *204:I I *C 19.1 95.8 *L 0.00203 *D BUFFD6
*I *328:Q O *C 18.3 95.6 *L 0 *D DFQD4

*CAP
1 *150:2 5.692e-05
2 *150:3 5.692e-05

*RES
1 *150:3 *204:I 1.57861495
2 *150:2 *150:3 1.27385676
3 *328:Q *150:2 1.57861495
*END

*D_NET *151 0.0325363

*CONN
*I *369:B1 I *C -27.7 101.4 *L 0.00179 *D INR2D2
*I *360:A2 I *C -27.5 99.2 *L 0.00105 *D ND3D1
*I *359:B1 I *C -28.3 97.8 *L 0.001 *D IND3D1
*I *325:C O *C 165.44 195.5 *L 0 *D PDDW16DGZ

*CAP
1 *369:B1 2.96483e-05
2 *360:A2 2.96483e-05
3 *359:B1 2.96483e-05
4 *325:C 4.26295e-05
5 *151:4 0.000109458
6 *151:5 9.19899e-05
7 *151:6 0.000244078
8 *151:7 0.000214269
9 *151:8 5.73735e-05
10 *151:9 3.41356e-05
11 *151:10 4.42321e-05
12 *151:11 5.25657e-05
13 *151:12 0.01050272
14 *151:13 0.01050272
15 *151:14 0.00505272
16 *151:15 7.53228e-05
17 *151:16 0.00505272
18 *151:17 9.75991e-05
19 *151:18 7.67651e-05
20 *151:19 9.75991e-05
21 *151:20 3.50972e-05
22 *151:21 6.34634e-05

*RES
1 *151:21 *325:C 0.956193
2 *151:20 *151:21 0.424635
3 *151:19 *151:20 0.317713
4 *151:17 *151:19 1.69854
5 *151:17 *151:18 0.317713
6 *151:15 *151:18 1.27391
7 *151:16 *151:15 1.5794
8 *151:14 *151:16 99.1477
9 *151:13 *151:14 1.5794
10 *151:12 *151:13 200.207794
11 *151:5 *360:A2 3.15574
12 *151:8 *151:12 1.5794
13 *151:5 *151:4 2.09263
14 *151:4 *151:8 0.268834
15 *151:9 *151:4 0.317713
16 *151:10 *369:B1 3.15574
17 *151:9 *151:10 0.525448
18 *151:10 *151:11 0.21079
19 *151:6 *151:11 0.956193
20 *151:7 *151:6 4.99786
21 *359:B1 *151:7 3.15574
*END

*D_NET *152 0.0288749

*CONN
*I *360:A3 I *C -27.9 99.4 *L 0.00106 *D ND3D1
*I *359:A1 I *C -27.7 97.8 *L 0.000709 *D IND3D1
*I *358:A2 I *C -27.9 95.8 *L 0.00105 *D ND2D1
*I *324:C O *C 133.13 195.5 *L 0 *D PDDW16DGZ

*CAP
1 *360:A3 2.95431e-05
2 *359:A1 2.95431e-05
3 *358:A2 2.95431e-05
4 *324:C 0.000168609
5 *152:4 0.000100074
6 *152:5 4.39155e-05
7 *152:6 7.90478e-05
8 *152:7 7.7717e-05
9 *152:8 6.77363e-05
10 *152:9 4.04554e-05
11 *152:10 0.00872121
12 *152:11 0.00872121
13 *152:12 7.03978e-05
14 *152:13 0.00502592
15 *152:14 0.000216916
16 *152:15 0.00502592
17 *152:16 0.000209996
18 *152:17 0.000216916

*RES
1 *152:16 *324:C 3.60838
2 *152:17 *152:16 1.5793
3 *152:14 *152:17 4.03289
4 *152:15 *152:14 1.5793
5 *152:13 *152:15 98.0858
6 *152:10 *152:13 1.5793
7 *152:11 *152:10 165.601364
8 *152:8 *360:A3 3.15607
9 *152:8 *152:11 1.5793
10 *152:9 *152:8 0.619085
11 *152:9 *152:12 0.318386
12 *152:4 *359:A1 3.15607
13 *152:4 *152:12 1.67279
14 *152:5 *152:4 0.783332
15 *152:6 *152:5 0.318386
16 *152:7 *152:6 1.06887
17 *358:A2 *152:7 3.15607
*END

*D_NET *162 0.000525669

*CONN
*I *368:ZN O *C -27.1 92 *L 0 *D NR2D0
*I *337:A2 I *C -26.5 90.6 *L 0.00101 *D OAI221D1

*CAP
1 *368:ZN 7.05298e-05
2 *337:A2 2.95801e-05
3 *162:2 4.80592e-05
4 *162:3 9.21189e-05
5 *162:4 0.00010738
6 *162:5 8.61006e-05
7 *162:6 9.18993e-05

*RES
1 *162:2 *337:A2 3.1572299
2 *162:2 *162:3 0.707265
3 *162:3 *162:4 1.27386
4 *162:4 *162:6 1.06155
5 *162:5 *162:6 1.57861
6 *368:ZN *162:5 1.51458967
*END

*D_NET *163 0.000420391

*CONN
*I *367:ZN O *C -37.7 90.8 *L 0 *D NR2D0
*I *334:A2 I *C -36.9 88.6 *L 0.00101 *D OAI221D1

*CAP
1 *367:ZN 3.63601e-05
2 *334:A2 2.95792e-05
3 *163:2 0.000135690547
4 *163:3 8.30707e-05
5 *163:4 0.000135690547

*RES
1 *163:2 *334:A2 3.1572299
2 *163:2 *163:4 2.1593225
3 *163:3 *163:4 1.57861
4 *367:ZN *163:3 0.757271
*END

*D_NET *164 0.000749189

*CONN
*I *366:ZN O *C -27.1 84.8 *L 0 *D NR2D0
*I *335:A2 I *C -26.1 83.4 *L 0.000773 *D OAI221D0

*CAP
1 *366:ZN 6.69507e-05
2 *335:A2 2.95794e-05
3 *164:2 0.00025267
4 *164:3 0.000224209
5 *164:4 2.32101e-05
6 *164:5 3.88094e-05
7 *164:6 7.89105e-05
8 *164:7 3.48498e-05

*RES
1 *164:4 *366:ZN 1.57863
2 *164:7 *335:A2 3.15727
3 *164:4 *164:5 0.212303
4 *164:6 *164:7 0.728905
5 *164:3 *164:5 0.63691
6 *164:2 *164:6 1.27389
7 *164:2 *164:3 4.81936359
*END

*D_NET *165 0.00031188

*CONN
*I *365:ZN O *C -36.1 95.6 *L 0 *D NR2D0
*I *338:A2 I *C -36.9 95.8 *L 0.00101 *D OAI221D1

*CAP
1 *365:ZN 2.95796e-05
2 *338:A2 2.95796e-05
3 *165:2 0.00010358
4 *165:3 4.52901e-05
5 *165:4 8.10701e-05
6 *165:5 2.27802e-05

*RES
1 *165:5 *365:ZN 3.1572299
2 *165:3 *338:A2 3.1572299
3 *165:4 *165:5 0.212309
4 *165:2 *165:3 0.899051
5 *165:2 *165:4 1.59229684
*END

*D_NET *166 0.00842408

*CONN
*I *369:ZN O *C -27.5 101.6 *L 0 *D INR2D2
*I *358:A1 I *C -28.3 95.6 *L 0.00103 *D ND2D1
*I *349:A1 I *C -40.3 95.8 *L 0.000923 *D AOI31D1
*I *348:A1 I *C -39.5 90.6 *L 0.000923 *D AOI31D1
*I *347:A1 I *C -25.1 97.8 *L 0.000923 *D AOI31D1
*I *346:A1 I *C -40.3 81.4 *L 0.000923 *D AOI31D1
*I *345:A1 I *C -29.9 90.6 *L 0.000923 *D AOI31D1
*I *344:A1 I *C -35.3 85 *L 0.000923 *D AOI31D1
*I *343:A1 I *C -30.9 83.4 *L 0.000923 *D AOI31D1
*I *342:A1 I *C -25.5 85 *L 0.000923 *D AOI31D1

*CAP
1 *369:ZN 6.69475e-05
2 *358:A1 2.95814e-05
3 *349:A1 2.95814e-05
4 *348:A1 2.95814e-05
5 *347:A1 2.95814e-05
6 *346:A1 2.95814e-05
7 *345:A1 2.95814e-05
8 *344:A1 2.95814e-05
9 *343:A1 2.95814e-05
10 *342:A1 2.95814e-05
11 *166:10 0.000130344
12 *166:11 0.000101759
13 *166:12 2.97544e-05
14 *166:13 2.97544e-05
15 *166:14 5.34542e-05
16 *166:15 2.487e-05
17 *166:16 0.00011972
18 *166:17 0.00011972
19 *166:18 0.00019375
20 *166:19 0.000110205
21 *166:20 0.000123587
22 *166:21 0.000122223
23 *166:22 0.000410243
24 *166:23 0.000256138
25 *166:24 0.000397828
26 *166:25 0.000551933
27 *166:26 2.56841e-05
28 *166:27 2.43103e-05
29 *166:28 5.34949e-05
30 *166:29 2.62844e-05
31 *166:30 5.38714e-05
32 *166:31 5.38714e-05
33 *166:32 7.48237e-05
34 *166:33 6.18493e-05
35 *166:34 0.000135187
36 *166:35 0.000106603
37 *166:36 0.000315963
38 *166:37 0.000396078
39 *166:38 0.000103784
40 *166:39 7.52002e-05
41 *166:40 0.000134424
42 *166:46 5.98956e-05
43 *166:47 5.42988e-05
44 *166:48 2.56841e-05
45 *166:49 2.43103e-05
46 *166:50 8.84798e-05
47 *166:51 0.000140581
48 *166:52 0.000494276
49 *166:53 2.78719e-05
50 *166:54 2.92456e-05
51 *166:55 0.00066688
52 *166:56 0.000356046
53 *166:57 3.30616e-05
54 *166:58 6.16356e-05
55 *166:59 0.000164067
56 *166:60 0.000228796
57 *166:61 9.17462e-05
58 *166:62 9.77093e-05
59 *166:63 5.35254e-05
60 *166:64 0.000191145
61 *166:65 0.000196823
62 *166:66 0.000137497
63 *166:67 8.329e-05
64 *166:68 0.000116219
65 *166:69 5.42988e-05
66 *166:70 0.000196823

*RES
1 *166:69 *347:A1 3.15722
2 *166:45 *166:69 0.689293
3 *166:68 *369:ZN 1.57861
4 *166:70 *166:69 1.57861
5 *166:67 *166:68 1.27846
6 *166:65 *166:70 3.19313
7 *166:66 *166:67 0.318432
8 *166:64 *166:65 1.57861
9 *166:64 *166:66 3.48402
10 *166:63 *166:64 0.901214
11 *166:62 *166:63 0.318432
12 *166:18 *358:A1 3.15722
13 *166:18 *166:62 1.60626
14 *166:19 *166:18 1.61947
15 *166:19 *166:16 0.318432
16 *166:17 *166:16 2.12306
17 *166:20 *166:17 0.318432
18 *166:21 *166:20 1.88944
19 *166:32 *166:21 1.57861
20 *166:13 *343:A1 3.15722
21 *166:43 *166:13 0.374826
22 *166:15 *345:A1 3.15722
23 *166:44 *166:15 0.374826
24 *166:33 *166:32 0.637745
25 *166:27 *342:A1 3.15722
26 *166:13 *166:12 0.271179
27 *166:15 *166:14 0.213132
28 *166:61 *166:33 0.636974
29 *166:27 *166:26 0.213132
30 *166:34 *166:12 1.57861
31 *166:60 *166:14 1.57861
32 *166:60 *166:61 1.06544
33 *166:29 *166:26 0.318432
34 *166:35 *166:34 1.69845
35 *166:59 *166:60 2.76081
36 *166:53 *348:A1 3.15722
37 *166:11 *346:A1 3.15722
38 *166:29 *166:28 0.213132
39 *166:40 *166:35 1.57861
40 *166:36 *166:59 1.57861
41 *166:53 *166:54 0.269968
42 *166:11 *166:10 2.36208
43 *166:57 *344:A1 3.15722
44 *166:24 *166:28 1.57861
45 *166:40 *166:37 2.27121
46 *166:37 *166:36 5.52007
47 *166:48 *166:54 0.318432
48 *166:46 *166:10 1.57861
49 *166:57 *166:58 0.424612
50 *166:25 *166:24 7.21852064
51 *166:25 *166:37 1.57861
52 *166:48 *166:49 0.213132
53 *166:46 *166:50 0.849225
54 *166:22 *166:58 1.57861
55 *166:22 *166:25 2.97229
56 *166:31 *166:49 1.57861
57 *166:42 *166:31 0.374826
58 *166:51 *166:50 1.57861
59 *166:23 *166:22 4.46234
60 *166:31 *166:30 0.213132
61 *166:51 *166:52 2.1778
62 *166:52 *166:23 1.57861
63 *166:55 *166:30 1.57861
64 *166:52 *166:55 5.88003
65 *166:55 *166:56 5.4444
66 *166:38 *166:56 1.57861
67 *166:39 *166:38 1.07965
68 *166:47 *349:A1 3.15722
69 *166:47 *166:39 1.57861
70 *166:41 *166:47 0.689293
*END

*D_NET *167 0.000843368

*CONN
*I *364:ZN O *C -42.1 81.2 *L 0 *D NR2D0
*I *339:A2 I *C -37.7 81.4 *L 0.000773 *D OAI221D0

*CAP
1 *364:ZN 3.52594e-05
2 *339:A2 2.95795e-05
3 *167:3 5.08312e-05
4 *167:4 5.2891e-05
5 *167:5 5.2891e-05
6 *167:6 0.00025185
7 *167:7 4.48207e-05
8 *167:8 7.3401e-05
9 *167:9 0.00025185

*RES
1 *167:7 *339:A2 3.15721
2 *167:7 *167:8 0.541087
3 *167:9 *167:8 1.5786
4 *167:6 *167:9 4.25392342
5 *167:5 *167:6 1.5786
6 *364:ZN *167:3 0.757302
7 *167:4 *167:5 0.213099
8 *167:4 *167:3 1.5786
9 *167:2 *167:4 0.374789
*END

*D_NET *168 0.000631534

*CONN
*I *363:ZN O *C -24.1 95.6 *L 0 *D NR2D0
*I *340:A2 I *C -25.9 95.8 *L 0.000773 *D OAI221D0

*CAP
1 *363:ZN 6.69494e-05
2 *340:A2 2.9579e-05
3 *168:4 2.46283e-05
4 *168:5 5.32099e-05
5 *168:6 0.000187142
6 *168:7 5.42995e-05
7 *168:8 0.00021572

*RES
1 *168:3 *168:7 0.689295
2 *168:7 *363:ZN 1.57861
3 *168:8 *168:7 1.57861
4 *168:6 *168:8 2.94072914
5 *168:5 *168:6 1.57861
6 *168:4 *340:A2 3.1572299
7 *168:4 *168:5 0.21308
8 *168:2 *168:4 0.374805
*END

*D_NET *169 0.000465481

*CONN
*I *362:ZN O *C -33.7 84.8 *L 0 *D NR2D0
*I *341:A2 I *C -34.9 83.4 *L 0.000773 *D OAI221D0

*CAP
1 *362:ZN 2.9581e-05
2 *341:A2 2.9581e-05
3 *169:2 8.40711e-05
4 *169:3 0.00011265
5 *169:5 5.4301e-05
6 *169:6 7.76492e-05
7 *169:7 7.76492e-05

*RES
1 *169:2 *362:ZN 3.1572299
2 *169:3 *169:2 2.0786767
3 *169:7 *169:3 1.57861
4 *169:6 *169:7 1.67762
5 *169:5 *341:A2 3.1572299
6 *169:5 *169:6 1.57861
7 *169:4 *169:5 0.689295
*END

*D_NET *170 0.00048469

*CONN
*I *361:ZN O *C -31.1 81.2 *L 0 *D NR2D0
*I *336:A2 I *C -28.9 81.4 *L 0.000773 *D OAI221D0

*CAP
1 *361:ZN 5.83593e-05
2 *336:A2 2.95804e-05
3 *170:4 7.39299e-05
4 *170:5 5.42998e-05
5 *170:6 8.73894e-05
6 *170:7 3.25799e-05
7 *170:8 0.00011597
8 *170:9 3.25799e-05

*RES
1 *170:9 *336:A2 3.1572299
2 *170:3 *170:7 0.374805
3 *170:7 *170:9 0.370421
4 *170:8 *170:7 1.57861
5 *170:6 *170:8 1.58858728
6 *361:ZN *170:4 1.25772
7 *170:5 *170:6 1.57861
8 *170:5 *170:4 1.57861
9 *170:2 *170:5 0.689295
*END

*D_NET *171 0.00622793

*CONN
*I *360:ZN O *C -27.1 99.8 *L 0 *D ND3D1
*I *339:B2 I *C -37.9 81.4 *L 0.000736 *D OAI221D0
*I *352:A1 I *C -37.5 85 *L 0.000962 *D NR2D1
*I *334:B2 I *C -37.9 88.6 *L 0.000989 *D OAI221D1
*I *336:B2 I *C -29.1 81.4 *L 0.000736 *D OAI221D0
*I *338:B2 I *C -37.9 95.8 *L 0.000989 *D OAI221D1
*I *335:B2 I *C -25.9 83.4 *L 0.000736 *D OAI221D0
*I *337:B2 I *C -27.5 90.6 *L 0.000989 *D OAI221D1
*I *355:A1 I *C -25.1 99.4 *L 0.000962 *D NR2D1

*CAP
1 *360:ZN 9.9582e-05
2 *339:B2 2.95836e-05
3 *352:A1 2.95836e-05
4 *334:B2 2.95836e-05
5 *336:B2 6.6948e-05
6 *338:B2 2.95836e-05
7 *335:B2 2.95836e-05
8 *337:B2 2.95836e-05
9 *355:A1 2.95836e-05
10 *171:9 0.000432755
11 *171:10 0.000528029
12 *171:11 0.000268843
13 *171:12 0.000193936
14 *171:13 0.000278576
15 *171:14 0.000103984
16 *171:15 5.17901e-05
17 *171:16 2.32108e-05
18 *171:18 0.000558447
19 *171:19 0.000181735
20 *171:20 4.14847e-05
21 *171:21 2.58857e-05
22 *171:22 3.99079e-05
23 *171:23 5.86041e-05
24 *171:24 0.00061509
25 *171:25 0.00021603
26 *171:26 4.7041e-05
27 *171:27 0.00018594
28 *171:28 8.62168e-05
29 *171:29 0.000243173
30 *171:30 0.0006044
31 *171:31 0.000416836
32 *171:32 0.000136974
33 *171:33 0.000121376
34 *171:34 0.00015736
35 *171:35 8.55692e-05
36 *171:36 8.9849e-05
37 *171:37 6.12697e-05

*RES
1 *171:37 *355:A1 3.15721
2 *171:36 *171:37 0.955356
3 *171:35 *171:36 1.57861
4 *360:ZN *171:35 1.50922
5 *171:33 *360:ZN 3.15721
6 *171:21 *352:A1 3.15721
7 *171:32 *171:33 2.1217
8 *171:12 *339:B2 3.15721
9 *171:20 *171:21 0.213812
10 *171:9 *338:B2 3.15721
11 *171:31 *171:32 0.636845
12 *171:12 *171:11 3.555
13 *171:11 *171:20 0.636845
14 *171:10 *334:B2 3.15721
15 *171:10 *171:9 8.27227
16 *171:30 *337:B2 3.15721
17 *171:30 *171:31 7.30844
18 *171:11 *171:19 2.51348
19 *171:19 *171:10 1.91071
20 *171:29 *171:30 3.8216
21 *171:23 *336:B2 1.57861
22 *171:18 *171:19 1.57861
23 *171:28 *171:29 1.57861
24 *171:22 *171:23 0.213106
25 *171:18 *171:24 11.5709085
26 *171:24 *171:28 1.50922
27 *171:22 *171:14 0.636845
28 *171:25 *171:24 1.57861
29 *171:14 *171:13 3.07493
30 *171:13 *171:25 3.39698
31 *171:13 *171:26 0.636845
32 *171:27 *171:26 1.57861
33 *171:27 *171:34 2.55321
34 *171:15 *171:34 1.57861
35 *171:16 *335:B2 3.15721
36 *171:16 *171:15 0.212223
37 *171:17 *171:16 0.374833
*END

*D_NET *172 0.00633056

*CONN
*I *359:ZN O *C -28.1 97.2 *L 0 *D IND3D1
*I *351:A1 I *C -39.9 94.2 *L 0.000962 *D NR2D1
*I *354:A1 I *C -39.9 92.2 *L 0.000962 *D NR2D1
*I *357:A1 I *C -39.9 83.4 *L 0.000962 *D NR2D1
*I *341:B2 I *C -34.7 83.4 *L 0.000736 *D OAI221D0
*I *350:A1 I *C -30.5 85 *L 0.000962 *D NR2D1
*I *353:A1 I *C -26.5 87 *L 0.000962 *D NR2D1
*I *356:A1 I *C -29.9 92.2 *L 0.000962 *D NR2D1
*I *340:B2 I *C -25.7 95.8 *L 0.000736 *D OAI221D0

*CAP
1 *359:ZN 2.95829e-05
2 *351:A1 2.95829e-05
3 *354:A1 2.95829e-05
4 *357:A1 2.95829e-05
5 *341:B2 2.95829e-05
6 *350:A1 2.95829e-05
7 *353:A1 2.95829e-05
8 *356:A1 2.95829e-05
9 *340:B2 6.69533e-05
10 *172:9 6.15513e-05
11 *172:10 6.15513e-05
12 *172:11 7.4623e-05
13 *172:12 6.03932e-05
14 *172:13 0.00011578
15 *172:14 4.97348e-05
16 *172:15 0.000425998
17 *172:16 0.000454457422
18 *172:17 2.90212e-05
19 *172:18 2.90212e-05
20 *172:19 0.000115828
21 *172:20 0.000110107
22 *172:21 0.000167415
23 *172:22 6.85275e-05
24 *172:23 0.000213446
25 *172:24 0.00023572
26 *172:25 0.000168545
27 *172:26 0.000104872
28 *172:27 0.00027074
29 *172:28 0.000207254
30 *172:29 9.14185e-05
31 *172:30 0.00016394
32 *172:31 8.36726e-05
33 *172:32 8.50387e-05
34 *172:39 2.27801e-05
35 *172:40 3.83759e-05
36 *172:41 9.30759e-05
37 *172:42 0.000194508
38 *172:43 6.13918e-05
39 *172:44 0.000194508
40 *172:45 5.42977e-05
41 *172:46 5.13644e-05
42 *172:47 0.000128969
43 *172:48 0.000146195
44 *172:49 3.3702e-05
45 *172:50 0.000376631
46 *172:51 5.18637e-05
47 *172:52 0.000376631
48 *172:53 5.42977e-05
49 *172:54 9.44905e-05
50 *172:55 8.26393e-05
51 *172:56 0.000249721
52 *172:57 5.42977e-05
53 *172:58 0.000218585

*RES
1 *172:19 *340:B2 1.57863
2 *172:20 *172:19 1.40956
3 *172:31 *359:ZN 3.15726
4 *172:58 *172:20 1.57863
5 *172:32 *172:31 1.59109
6 *172:56 *172:58 4.02235
7 *172:26 *172:32 0.318515
8 *172:27 *172:56 1.57863
9 *172:27 *172:26 2.11644
10 *172:28 *172:27 2.96906
11 *172:53 *356:A1 3.15726
12 *172:37 *172:53 0.0795979
13 *172:55 *172:28 1.57863
14 *172:54 *172:53 1.57863
15 *172:54 *172:55 1.27381
16 *172:36 *172:51 0.374789
17 *172:51 *172:54 0.212261
18 *172:41 *351:A1 3.15726
19 *172:57 *353:A1 3.15726
20 *172:38 *172:57 0.689355
21 *172:52 *172:51 1.57863
22 *172:13 *354:A1 3.15726
23 *172:13 *172:41 1.69846
24 *172:23 *172:57 1.57863
25 *172:50 *172:52 5.88
26 *172:14 *172:13 0.727858
27 *172:24 *172:23 3.8223
28 *172:24 *172:50 1.57863
29 *172:14 *172:11 0.636907
30 *172:49 *172:24 0.424646
31 *172:12 *172:11 0.852377
32 *172:48 *172:49 1.57863
33 *172:12 *172:9 0.318515
34 *172:47 *350:A1 3.15726
35 *172:47 *172:48 2.1231
36 *172:39 *357:A1 3.15726
37 *172:10 *172:9 1.16484
38 *172:35 *172:46 0.374789
39 *172:46 *172:47 0.212261
40 *172:39 *172:40 0.212261
41 *172:15 *172:10 0.318515
42 *172:29 *172:46 1.57863
43 *172:40 *172:16 0.636907
44 *172:16 *172:15 8.08764267
45 *172:18 *341:B2 3.15726
46 *172:34 *172:18 0.374789
47 *172:30 *172:29 2.98696
48 *172:16 *172:43 0.318515
49 *172:18 *172:17 0.271127
50 *172:25 *172:30 1.91084
51 *172:42 *172:43 1.57863
52 *172:21 *172:17 1.57863
53 *172:21 *172:25 2.10188
54 *172:42 *172:44 3.78652
55 *172:22 *172:21 2.00661
56 *172:45 *172:44 1.57863
57 *172:45 *172:22 1.57863
58 *172:33 *172:45 0.689355
*END

*D_NET *173 0.00579117

*CONN
*I *358:ZN O *C -28.5 95.4 *L 0 *D ND2D1
*I *341:A1 I *C -35.5 83.4 *L 0.000668 *D OAI221D0
*I *340:A1 I *C -26.5 95.8 *L 0.000668 *D OAI221D0
*I *339:A1 I *C -37.1 81.4 *L 0.000668 *D OAI221D0
*I *338:A1 I *C -37.1 95.8 *L 0.000957 *D OAI221D1
*I *337:A1 I *C -26.7 90.6 *L 0.000957 *D OAI221D1
*I *336:A1 I *C -28.3 81.4 *L 0.000668 *D OAI221D0
*I *335:A1 I *C -26.7 83.4 *L 0.000668 *D OAI221D0
*I *334:A1 I *C -37.1 88.6 *L 0.000957 *D OAI221D1

*CAP
1 *358:ZN 6.69522e-05
2 *341:A1 2.95862e-05
3 *340:A1 2.95862e-05
4 *339:A1 2.95862e-05
5 *338:A1 2.95862e-05
6 *337:A1 2.95862e-05
7 *336:A1 2.95862e-05
8 *335:A1 2.95862e-05
9 *334:A1 2.95862e-05
10 *173:9 0.000431065
11 *173:10 0.00076668
12 *173:11 0.000435429
13 *173:12 0.000360405
14 *173:13 0.000543783
15 *173:14 0.000212567
16 *173:15 5.76165e-05
17 *173:16 2.90481e-05
18 *173:17 3.00191e-05
19 *173:18 2.86503e-05
20 *173:19 8.55298e-05
21 *173:20 0.000383053
22 *173:21 0.000384434
23 *173:22 5.34752e-05
24 *173:23 0.000128266
25 *173:24 0.000131085
26 *173:25 0.000102516
27 *173:26 0.000201664
28 *173:27 0.000222768
29 *173:32 8.75771e-05
30 *173:33 7.23336e-05
31 *173:34 4.37535e-05
32 *173:35 6.84379e-05
33 *173:36 2.78665e-05
34 *173:37 0.000129038
35 *173:38 7.77735e-05
36 *173:39 0.000113104
37 *173:40 2.82175e-05
38 *173:41 2.82175e-05
39 *173:42 6.84379e-05
40 *173:43 5.42941e-05
41 *173:44 0.000100446

*RES
1 *173:9 *338:A1 3.15729
2 *173:19 *339:A1 3.15729
3 *173:10 *334:A1 3.15729
4 *173:10 *173:9 8.08012581
5 *173:34 *341:A1 3.15729
6 *173:19 *173:11 1.41454
7 *173:11 *173:10 6.66053
8 *173:33 *173:34 0.943561
9 *173:32 *173:11 1.57864
10 *173:23 *173:33 1.57864
11 *173:32 *173:23 1.89292
12 *173:18 *336:A1 3.15729
13 *173:23 *173:22 0.899175
14 *173:41 *335:A1 3.15729
15 *173:29 *173:41 0.0796472
16 *173:18 *173:17 0.269888
17 *173:22 *173:21 0.318466
18 *173:40 *173:41 0.269888
19 *173:17 *173:38 0.318466
20 *173:21 *173:20 7.11376
21 *173:24 *173:40 1.57864
22 *173:38 *173:39 1.27386
23 *173:39 *173:20 1.57864
24 *173:25 *173:24 1.56718
25 *173:16 *337:A1 3.15729
26 *173:30 *173:16 0.374811
27 *173:39 *173:27 0.424621
28 *173:27 *173:25 1.57864
29 *173:16 *173:15 0.271121
30 *173:43 *340:A1 3.15729
31 *173:31 *173:43 0.689331
32 *173:27 *173:26 4.67564
33 *173:42 *173:15 1.57864
34 *173:44 *173:43 1.57864
35 *173:14 *173:26 0.636931
36 *173:35 *173:42 2.25873
37 *173:37 *173:44 2.59618
38 *173:14 *173:13 3.92491
39 *173:13 *173:35 1.57864
40 *173:36 *173:37 1.57864
41 *173:13 *173:12 7.93279
42 *173:12 *173:36 0.269888
43 *173:12 *358:ZN 1.57864
44 *173:28 *173:12 0.374811
*END

*D_NET *174 0.000308711

*CONN
*I *357:ZN O *C -39.9 83.6 *L 0 *D NR2D1
*I *346:B I *C -39.9 81.4 *L 0.00105 *D AOI31D1

*CAP
1 *357:ZN 6.69501e-05
2 *346:B 2.95801e-05
3 *174:2 7.20208e-05
4 *174:3 7.33904297e-05
5 *174:4 3.40697e-05
6 *174:5 3.27001e-05

*RES
1 *174:5 *357:ZN 1.57861
2 *174:4 *174:5 0.424619
3 *174:3 *174:4 0.31844
4 *174:2 *174:3 1.06540132
5 *346:B *174:2 3.1572299
*END

*D_NET *175 0.00033791

*CONN
*I *356:ZN O *C -29.9 92 *L 0 *D NR2D1
*I *345:B I *C -29.5 90.6 *L 0.00105 *D AOI31D1

*CAP
1 *356:ZN 2.91194e-05
2 *345:B 2.95799e-05
3 *175:2 4.68101e-05
4 *175:3 6.24101e-05
5 *175:4 5.48797e-05
6 *175:5 7.583e-05
7 *175:6 3.92798e-05

*RES
1 *175:2 *345:B 3.1572299
2 *175:2 *175:3 1.23950756
3 *175:3 *175:4 0.636928
4 *175:4 *175:6 0.491246
5 *175:5 *175:6 1.57861
6 *356:ZN *175:5 0.943517
*END

*D_NET *176 0.00021626

*CONN
*I *355:ZN O *C -25.1 99.2 *L 0 *D NR2D1
*I *347:B I *C -25.5 97.8 *L 0.00105 *D AOI31D1

*CAP
1 *355:ZN 2.95793e-05
2 *347:B 2.95793e-05
3 *176:2 5.38402e-05
4 *176:3 5.521e-05
5 *176:4 2.47099e-05
6 *176:5 2.33401e-05

*RES
1 *176:5 *355:ZN 3.1572299
2 *176:4 *176:5 0.212309
3 *176:3 *176:4 0.31844
4 *176:2 *176:3 1.45581555
5 *347:B *176:2 3.1572299
*END

*D_NET *177 0.00034553

*CONN
*I *354:ZN O *C -39.9 92 *L 0 *D NR2D1
*I *348:B I *C -39.1 90.6 *L 0.00105 *D AOI31D1

*CAP
1 *354:ZN 3.52592e-05
2 *348:B 2.95805e-05
3 *177:2 0.000100641
4 *177:3 5.08303e-05
5 *177:4 0.00012922

*RES
1 *177:2 *348:B 3.1572299
2 *177:2 *177:4 1.63160801
3 *177:3 *177:4 1.57861
4 *354:ZN *177:3 0.757271
*END

*D_NET *178 0.00054417

*CONN
*I *353:ZN O *C -26.5 87.2 *L 0 *D NR2D1
*I *342:B I *C -25.1 85 *L 0.00105 *D AOI31D1

*CAP
1 *353:ZN 6.69502e-05
2 *342:B 2.95802e-05
3 *178:3 5.43e-05
4 *178:4 8.29196e-05
5 *178:5 7.89203e-05
6 *178:6 9.19e-05
7 *178:7 5.43393e-05
8 *178:8 3.4829e-05
9 *178:9 5.04297e-05

*RES
1 *178:8 *342:B 3.1572299
2 *178:8 *178:9 0.42539
3 *178:5 *178:9 0.636928
4 *178:5 *178:6 1.06155
5 *178:7 *178:6 1.57861
6 *178:4 *178:7 1.49401879
7 *178:3 *178:4 1.57861
8 *178:3 *353:ZN 1.57861
9 *178:2 *178:3 0.689295
*END

*D_NET *179 0.000458349

*CONN
*I *352:ZN O *C -37.5 84.8 *L 0 *D NR2D1
*I *344:B I *C -34.9 85 *L 0.00105 *D AOI31D1

*CAP
1 *352:ZN 5.93205e-05
2 *344:B 2.95801e-05
3 *179:4 7.48901e-05
4 *179:5 5.42994e-05
5 *179:6 9.29795215e-05
6 *179:7 5.42994e-05
7 *179:8 9.29795215e-05

*RES
1 *179:7 *344:B 3.1572299
2 *179:3 *179:7 0.0796341
3 *179:8 *179:7 1.57861
4 *179:6 *179:8 1.5948019
5 *352:ZN *179:4 1.25772
6 *179:5 *179:6 1.57861
7 *179:5 *179:4 1.57861
8 *179:2 *179:5 0.689295
*END

*D_NET *180 0.000381152

*CONN
*I *351:ZN O *C -39.9 94.4 *L 0 *D NR2D1
*I *349:B I *C -39.9 95.8 *L 0.00105 *D AOI31D1

*CAP
1 *351:ZN 2.35105e-05
2 *349:B 2.95805e-05
3 *180:2 6.33993e-05
4 *180:3 3.357e-05
5 *180:4 7.02201e-05
6 *180:5 6.55207e-05
7 *180:6 9.535e-05

*RES
1 *351:ZN *180:4 0.504879
2 *180:5 *180:4 1.57861
3 *180:3 *349:B 3.1572299
4 *180:5 *180:6 1.06154728
5 *180:2 *180:3 0.424619
6 *180:2 *180:6 0.955368
*END

*D_NET *181 0.000257079

*CONN
*I *350:ZN O *C -30.5 84.8 *L 0 *D NR2D1
*I *343:B I *C -30.5 83.4 *L 0.00105 *D AOI31D1

*CAP
1 *350:ZN 2.95796e-05
2 *343:B 2.95796e-05
3 *181:2 3.42703e-05
4 *181:3 3.56405e-05
5 *181:4 6.469e-05
6 *181:5 6.33199e-05

*RES
1 *181:5 *350:ZN 3.1572299
2 *181:4 *181:5 1.06154728
3 *181:3 *181:4 0.31844
4 *181:2 *181:3 0.42539
5 *343:B *181:2 3.1572299
*END

*D_NET *182 0.00016336

*CONN
*I *349:ZN O *C -39.7 95.6 *L 0 *D AOI31D1
*I *338:C I *C -38.3 95.8 *L 0.00105 *D OAI221D1

*CAP
1 *349:ZN 8.168e-05
2 *338:C 8.168e-05

*RES
1 *349:ZN *338:C 1.76079
*END

*D_NET *183 0.000555859

*CONN
*I *348:ZN O *C -38.9 90.8 *L 0 *D AOI31D1
*I *334:C I *C -38.3 88.6 *L 0.00105 *D OAI221D1

*CAP
1 *348:ZN 6.69491e-05
2 *334:C 5.8361e-05
3 *183:2 7.39297e-05
4 *183:3 0.00013664
5 *183:4 0.000123661
6 *183:5 3.88101e-05
7 *183:6 5.75104e-05

*RES
1 *183:6 *348:ZN 1.5786
2 *183:5 *183:6 0.212319
3 *183:4 *183:5 0.636933
4 *183:3 *183:4 1.61947668
5 *183:2 *334:C 1.2577
6 *183:2 *183:3 1.5786
*END

*D_NET *184 0.00027697

*CONN
*I *347:ZN O *C -25.7 98 *L 0 *D AOI31D1
*I *340:C I *C -25.5 95.8 *L 0.000759 *D OAI221D0

*CAP
1 *347:ZN 6.695e-05
2 *340:C 2.95802e-05
3 *184:2 2.95894e-05
4 *184:3 6.25194e-05
5 *184:4 4.348e-05
6 *184:5 4.48499e-05

*RES
1 *184:4 *340:C 3.1572299
2 *184:4 *184:5 1.23849583
3 *184:3 *347:ZN 1.57861
4 *184:2 *184:5 0.31844
5 *184:2 *184:3 0.269927
*END

*D_NET *185 0.00035693

*CONN
*I *346:ZN O *C -39.7 81.2 *L 0 *D AOI31D1
*I *339:C I *C -38.1 81.4 *L 0.000759 *D OAI221D0

*CAP
1 *346:ZN 6.00005e-05
2 *339:C 2.95799e-05
3 *185:2 7.557e-05
4 *185:3 5.19194e-05
5 *185:4 5.31706e-05
6 *185:5 2.84303e-05
7 *185:6 5.82593e-05

*RES
1 *185:5 *339:C 3.1572299
2 *185:5 *185:6 0.269927
3 *185:4 *185:6 0.955368
4 *185:3 *185:4 0.212309
5 *185:2 *185:3 1.57861
6 *346:ZN *185:2 1.26215005
*END

*D_NET *186 0.00016462

*CONN
*I *345:ZN O *C -29.3 90.8 *L 0 *D AOI31D1
*I *337:C I *C -27.9 90.6 *L 0.00105 *D OAI221D1

*CAP
1 *345:ZN 8.231e-05
2 *337:C 8.231e-05

*RES
1 *345:ZN *337:C 1.76079
*END

*D_NET *187 0.000367231

*CONN
*I *344:ZN O *C -34.7 84.8 *L 0 *D AOI31D1
*I *341:C I *C -34.5 83.4 *L 0.000759 *D OAI221D0

*CAP
1 *344:ZN 2.35102e-05
2 *341:C 2.95807e-05
3 *187:2 2.33401e-05
4 *187:3 2.47111e-05
5 *187:4 9.862e-05
6 *187:5 7.02206e-05
7 *187:6 9.72506e-05

*RES
1 *187:2 *341:C 3.1572299
2 *187:2 *187:3 0.212309
3 *187:3 *187:4 0.31844
4 *187:4 *187:6 1.49233258
5 *187:5 *187:6 1.57861
6 *344:ZN *187:5 0.504879
*END

*D_NET *188 0.00042643

*CONN
*I *343:ZN O *C -30.3 83.6 *L 0 *D AOI31D1
*I *336:C I *C -29.3 81.4 *L 0.000759 *D OAI221D0

*CAP
1 *343:ZN 6.69503e-05
2 *336:C 2.95791e-05
3 *188:2 0.00012446
4 *188:3 0.00010047
5 *188:4 2.33404e-05
6 *188:5 8.16306e-05

*RES
1 *188:4 *336:C 3.1572299
2 *188:4 *188:5 0.212309
3 *188:3 *343:ZN 1.57861
4 *188:2 *188:5 1.59229684
5 *188:2 *188:3 1.06155
*END

*D_NET *189 0.000438271

*CONN
*I *342:ZN O *C -24.9 84.8 *L 0 *D AOI31D1
*I *335:C I *C -25.7 83.4 *L 0.000759 *D OAI221D0

*CAP
1 *342:ZN 6.69501e-05
2 *335:C 2.95815e-05
3 *189:2 7.54994e-05
4 *189:3 0.000138
5 *189:4 0.00012824

*RES
1 *189:4 *342:ZN 1.57861
2 *189:3 *189:4 1.6984756
3 *189:2 *189:3 1.27386
4 *335:C *189:2 3.1572299
*END

*D_NET *190 0.000940055

*CONN
*I *297:I I *C -33.7 76.2 *L 0.000676 *D CKBD0
*I *341:ZN O *C -34.3 83.6 *L 0 *D OAI221D0

*CAP
1 *297:I 2.95793e-05
2 *341:ZN 6.75106e-05
3 *190:2 2.27802e-05
4 *190:3 2.41525e-05
5 *190:4 0.000342873
6 *190:5 8.30795e-05
7 *190:6 0.00037008

*RES
1 *190:2 *297:I 3.15727
2 *190:2 *190:3 0.212309
3 *190:3 *190:4 0.318464
4 *190:4 *190:6 6.79390192
5 *190:5 *190:6 1.57864
6 *341:ZN *190:5 1.34072
*END

*D_NET *191 0.00042807

*CONN
*I *296:I I *C -24.1 94.4 *L 0.000658 *D CKND0
*I *340:ZN O *C -25.3 95.6 *L 0 *D OAI221D0

*CAP
1 *296:I 7.05294e-05
2 *340:ZN 6.69501e-05
3 *191:2 8.56805e-05
4 *191:3 3.69494e-05
5 *191:4 9.82703711e-05
6 *191:5 6.96897e-05

*RES
1 *191:5 *340:ZN 1.57861495
2 *191:4 *191:5 1.0654
3 *191:3 *191:4 1.57861495
4 *191:2 *296:I 1.51458967
5 *191:2 *191:3 0.405903
*END

*D_NET *192 0.000684179

*CONN
*I *294:I I *C -38.3 77.8 *L 0.000676 *D CKBD0
*I *339:ZN O *C -38.3 81.2 *L 0 *D OAI221D0

*CAP
1 *294:I 5.83589e-05
2 *339:ZN 4.89006e-05
3 *192:2 7.39298e-05
4 *192:3 0.00021926
5 *192:4 6.44682e-05
6 *192:5 0.00021926

*RES
1 *192:4 *339:ZN 1.40067
2 *192:5 *192:4 1.57861
3 *192:3 *192:5 3.60926032
4 *192:2 *294:I 1.2577
5 *192:2 *192:3 1.57861
*END

*D_NET *193 0.00621696

*CONN
*I *338:ZN O *C -36.7 95.6 *L 0 *D OAI221D1
*I *328:D I *C 15.5 95.8 *L 0.000908 *D DFQD4

*CAP
1 *338:ZN 2.95701e-05
2 *328:D 3.89392e-05
3 *193:2 0.000126342
4 *193:3 0.00013347
5 *193:4 0.000120335
6 *193:5 0.000120335
7 *193:8 5.42845e-05
8 *193:9 0.000377408
9 *193:10 0.00012572
10 *193:11 0.000350203
11 *193:12 0.00012572
12 *193:13 0.000115106
13 *193:14 0.000115106
14 *193:15 0.00203274
15 *193:16 0.00203987
16 *193:17 0.000117347
17 *193:18 2.708e-05
18 *193:19 5.13586e-05
19 *193:20 0.000115977

*RES
1 *193:18 *328:D 3.15723
2 *193:7 *193:18 0.374577
3 *193:18 *193:19 0.21216
4 *193:20 *193:19 1.57862
5 *193:17 *193:20 1.91244
6 *193:16 *193:17 0.318241
7 *193:15 *193:16 39.2772446
8 *193:4 *193:15 0.15942
9 *193:5 *193:4 2.32957
10 *193:5 *193:2 0.15942
11 *193:3 *193:2 2.70894
12 *193:3 *193:14 0.318241
13 *193:13 *193:14 1.91064
14 *193:12 *193:13 0.318241
15 *193:10 *193:12 2.1228
16 *193:10 *193:11 0.318241
17 *193:9 *193:11 6.15805
18 *193:8 *193:9 1.57862
19 *193:8 *338:ZN 3.15723
20 *193:6 *193:8 0.689222
*END

*D_NET *194 0.00339779

*CONN
*I *293:I I *C -10.9 76.2 *L 0.000979 *D CKBD1
*I *337:ZN O *C -26.3 90.8 *L 0 *D OAI221D1

*CAP
1 *293:I 0.000233366
2 *337:ZN 2.95834e-05
3 *194:3 5.43033e-05
4 *194:4 0.000640304
5 *194:5 0.000248927
6 *194:6 0.0007755
7 *194:7 0.0007755
8 *194:8 0.000640304

*RES
1 *194:5 *293:I 5.03091
2 *194:6 *194:5 1.57855
3 *194:6 *194:7 14.861661
4 *194:8 *194:7 1.57855
5 *194:4 *194:8 12.1016
6 *194:3 *194:4 1.57855
7 *194:3 *337:ZN 3.15733
8 *194:2 *194:3 0.689384
*END

*D_NET *195 0.00067587

*CONN
*I *292:I I *C -28.5 77.8 *L 0.000979 *D CKBD1
*I *336:ZN O *C -29.5 81.2 *L 0 *D OAI221D0

*CAP
1 *292:I 6.0721e-05
2 *336:ZN 6.695e-05
3 *195:2 0.000131529
4 *195:3 7.32416e-05
5 *195:4 0.00015686
6 *195:5 0.00018657

*RES
1 *195:4 *292:I 1.57861
2 *195:4 *195:5 2.33540392
3 *195:3 *336:ZN 1.57861
4 *195:2 *195:5 1.59233
5 *195:2 *195:3 1.27386
*END

*D_NET *196 0.000976021

*CONN
*I *291:I I *C -21.9 79.8 *L 0.000979 *D CKBD1
*I *335:ZN O *C -25.5 83.6 *L 0 *D OAI221D0

*CAP
1 *291:I 6.0719e-05
2 *335:ZN 2.95805e-05
3 *196:2 0.000160931
4 *196:3 0.00018951
5 *196:5 0.000216281
6 *196:6 5.13595e-05
7 *196:7 2.27804e-05
8 *196:8 0.00024486

*RES
1 *196:2 *335:ZN 3.15722
2 *196:3 *196:2 2.97231
3 *196:5 *196:3 1.57864
4 *196:5 *196:8 3.82156992
5 *196:7 *196:8 1.57864
6 *196:6 *291:I 1.57864
7 *196:6 *196:7 0.212316
8 *196:4 *196:6 0.374775
*END

*D_NET *197 0.00617113

*CONN
*I *334:ZN O *C -36.7 88.4 *L 0 *D OAI221D1
*I *327:D I *C 15.5 88.6 *L 0.000908 *D DFQD4

*CAP
1 *334:ZN 3.52505e-05
2 *327:D 3.89631e-05
3 *197:4 0.000333433
4 *197:5 5.04136e-05
5 *197:6 0.000333433
6 *197:7 6.21377e-05
7 *197:8 6.25676e-05
8 *197:9 5.43217e-05
9 *197:10 0.00256113
10 *197:11 2.70436e-05
11 *197:12 5.13516e-05
12 *197:13 0.00256113

*RES
1 *334:ZN *197:5 0.757472
2 *197:11 *327:D 3.15711
3 *197:3 *197:11 0.375059
4 *197:4 *197:5 0.405946
5 *197:11 *197:12 0.212533
6 *197:4 *197:6 6.79151
7 *197:13 *197:12 1.57892
8 *197:6 *197:7 0.405946
9 *197:10 *197:13 48.1957932
10 *197:7 *197:8 1.00972
11 *197:9 *197:10 1.57892
12 *197:9 *197:8 1.57892
13 *197:2 *197:9 0.689079
*END

*D_NET *198 0.0350253

*CONN
*I *333:CP I *C 12.7 -31.8 *L 0.000679 *D DFQD2
*I *332:CP I *C 12.5 15 *L 0.00102 *D DFQD4
*I *331:CP I *C 12.3 63.4 *L 0.00102 *D DFQD4
*I *330:CP I *C 12.7 -8.6 *L 0.000679 *D DFQD2
*I *329:CP I *C 12.1 -98.6 *L 0.000679 *D DFQD1
*I *328:CP I *C 14.5 95.8 *L 0.00102 *D DFQD4
*I *327:CP I *C 14.5 88.6 *L 0.00102 *D DFQD4
*I *326:CP I *C 12.1 51 *L 0.00102 *D DFQD4
*I *314:XC O *C 13.955 -195.5 *L 0 *D PDXOE3DG

*CAP
1 *333:CP 2.959e-05
2 *332:CP 2.959e-05
3 *331:CP 2.959e-05
4 *330:CP 2.959e-05
5 *329:CP 2.959e-05
6 *328:CP 2.959e-05
7 *327:CP 2.959e-05
8 *326:CP 2.959e-05
9 *314:XC 0.00539548
10 *198:9 3.66019e-05
11 *198:10 3.66019e-05
12 *198:11 3.66019e-05
13 *198:12 3.66019e-05
14 *198:21 5.42718e-05
15 *198:22 0.000120183
16 *198:23 5.42718e-05
17 *198:24 0.000120884
18 *198:25 5.42718e-05
19 *198:26 0.000108544
20 *198:27 5.42718e-05
21 *198:28 9.73246e-05
22 *198:29 5.42718e-05
23 *198:30 8.65263e-05
24 *198:31 5.42718e-05
25 *198:32 8.58251e-05
26 *198:33 0.000120183
27 *198:34 0.00919044
28 *198:35 8.65263e-05
29 *198:36 0.00510309
30 *198:37 8.58251e-05
31 *198:38 0.00266731
32 *198:39 9.73246e-05
33 *198:40 0.00338897
34 *198:41 0.000120884
35 *198:42 0.00275748
36 *198:43 0.000108544
37 *198:44 0.00214857
38 *198:45 0.00186305
39 *198:46 0.000455069
40 *198:47 5.42718e-05
41 *198:48 5.42718e-05

*RES
1 *198:48 *328:CP 3.15668
2 *198:20 *198:48 0.6891
3 *198:47 *327:CP 3.15668
4 *198:19 *198:47 0.6891
5 *198:11 *198:48 1.57912
6 *198:25 *331:CP 3.15668
7 *198:15 *198:25 0.6891
8 *198:9 *198:47 1.57912
9 *198:12 *198:11 0.42539
10 *198:23 *326:CP 3.15668
11 *198:14 *198:23 0.6891
12 *198:26 *198:25 1.57912
13 *198:10 *198:9 0.42539
14 *198:46 *198:12 1.57912
15 *198:27 *332:CP 3.15668
16 *198:16 *198:27 0.6891
17 *198:24 *198:23 1.57912
18 *198:26 *198:43 1.91033
19 *198:45 *198:10 1.57912
20 *198:45 *198:46 7.67115
21 *198:31 *330:CP 3.15668
22 *198:18 *198:31 0.6891
23 *198:28 *198:27 1.57912
24 *198:24 *198:41 2.12381
25 *198:44 *198:43 1.57912
26 *198:44 *198:45 26.8482
27 *198:29 *333:CP 3.15668
28 *198:17 *198:29 0.6891
29 *198:32 *198:31 1.57912
30 *198:28 *198:39 1.69842
31 *198:42 *198:41 1.57912
32 *198:42 *198:44 13.2106
33 *198:30 *198:29 1.57912
34 *198:32 *198:37 1.48651
35 *198:40 *198:39 1.57912
36 *198:40 *198:42 38.3542
37 *198:30 *198:35 1.48651
38 *198:38 *198:37 1.57912
39 *198:38 *198:40 25.1435
40 *198:36 *198:35 1.57912
41 *198:36 *198:38 24.7181
42 *314:XC *198:34 102.872177
43 *198:34 *198:36 71.1688
44 *198:33 *198:34 1.57912
45 *198:22 *198:33 2.12381
46 *198:21 *329:CP 3.15668
47 *198:21 *198:22 1.57912
48 *198:13 *198:21 0.6891
*END

*D_NET *199 0.0263212

*CONN
*I *369:A1 I *C -26.9 101.4 *L 0.00105 *D INR2D2
*I *360:A1 I *C -27.3 99.2 *L 0.00104 *D ND3D1
*I *359:B2 I *C -28.7 97.8 *L 0.001 *D IND3D1
*I *323:C O *C -195.5 162.75 *L 0 *D PDDW16DGZ

*CAP
1 *369:A1 2.96033e-05
2 *360:A1 2.96033e-05
3 *359:B2 2.33491e-05
4 *323:C 2.84914e-05
5 *199:4 0.00012703
6 *199:5 9.71488e-05
7 *199:6 0.000197355
8 *199:7 0.000210281
9 *199:8 5.99015e-05
10 *199:9 0.00010521
11 *199:10 0.00910822
12 *199:11 7.00472e-05
13 *199:12 4.87829e-05
14 *199:13 7.74133e-05
15 *199:14 5.67049e-05
16 *199:15 0.00334767
17 *199:16 0.00910822
18 *199:17 0.00334767
19 *199:18 8.54742e-05
20 *199:19 8.93658e-05
21 *199:20 7.37997e-05

*RES
1 *199:20 *369:A1 3.15624
2 *199:19 *199:20 1.27489
3 *199:11 *359:B2 0.504028
4 *199:18 *199:19 0.636099
5 *199:12 *199:11 1.57947
6 *199:4 *360:A1 3.15624
7 *199:4 *199:18 1.03501
8 *199:12 *199:13 0.900242
9 *199:5 *199:4 1.07005
10 *199:14 *199:13 1.57947
11 *199:8 *199:5 1.57947
12 *199:14 *199:9 0.84903
13 *199:9 *199:8 1.15899
14 *199:15 *199:9 1.57947
15 *199:15 *199:17 63.6935
16 *199:16 *199:17 1.57947
17 *199:10 *199:16 176.641449
18 *199:7 *199:10 1.57947
19 *199:7 *199:6 3.54706
20 *323:C *199:6 0.636099
*END

